MPI startup(): Warning: I_MPI_PMI_LIBRARY will be ignored since the hydra process manager was found
MPI startup(): Warning: I_MPI_PMI_LIBRARY will be ignored since the hydra process manager was found
MPI startup(): Warning: I_MPI_PMI_LIBRARY will be ignored since the hydra process manager was found
MPI startup(): Warning: I_MPI_PMI_LIBRARY will be ignored since the hydra process manager was found
MPI startup(): Warning: I_MPI_PMI_LIBRARY will be ignored since the hydra process manager was found
MPI startup(): Warning: I_MPI_PMI_LIBRARY will be ignored since the hydra process manager was found
MPI startup(): Warning: I_MPI_PMI_LIBRARY will be ignored since the hydra process manager was found
MPI startup(): Warning: I_MPI_PMI_LIBRARY will be ignored since the hydra process manager was found
MPI startup(): Warning: I_MPI_PMI_LIBRARY will be ignored since the hydra process manager was found
MPI startup(): Warning: I_MPI_PMI_LIBRARY will be ignored since the hydra process manager was found
MPI startup(): Warning: I_MPI_PMI_LIBRARY will be ignored since the hydra process manager was found
MPI startup(): Warning: I_MPI_PMI_LIBRARY will be ignored since the hydra process manager was found

     Program PWSCF v.6.8 starts on 27Sep2025 at 16:56:26 

     This program is part of the open-source Quantum ESPRESSO suite
     for quantum simulation of materials; please cite
         "P. Giannozzi et al., J. Phys.:Condens. Matter 21 395502 (2009);
         "P. Giannozzi et al., J. Phys.:Condens. Matter 29 465901 (2017);
         "P. Giannozzi et al., J. Chem. Phys. 152 154105 (2020);
          URL http://www.quantum-espresso.org", 
     in publications or presentations arising from this work. More details at
     http://www.quantum-espresso.org/quote

     Parallel version (MPI & OpenMP), running on      12 processor cores
     Number of MPI processes:                12
     Threads/MPI process:                     1

     MPI processes distributed on     1 nodes
     R & G space division:  proc/nbgrp/npool/nimage =      12
     169396 MiB available memory on the printing compute node when the environment starts
 
     Reading input from x0.000y0.000s0.990.scf.in
Warning: card &CELL ignored
Warning: card / ignored
Warning: card &FCP ignored
Warning: card / ignored
Warning: card &RISM ignored
Warning: card / ignored

     Current dimensions of program PWSCF are:
     Max number of different atomic species (ntypx) = 10
     Max number of k-points (npk) =  40000
     Max angular momentum in pseudopotentials (lmaxx) =  4

     IMPORTANT: XC functional enforced from input :
     Exchange-correlation= LDA
                           (   1   1   0   0   0   0   0)
     Any further DFT definition will be discarded
     Please, verify this is what you really want

     Message from routine setup:
     no reason to have ecutrho>4*ecutwfc
     Message from routine setup:
     using ibrav=0 with symmetry is DISCOURAGED, use correct ibrav instead

     Subspace diagonalization in iterative solution of the eigenvalue problem:
     one sub-group per band group will be used
     scalapack distributed-memory algorithm (size of sub-group:  3*  3 procs)

 
     Parallelization info
     --------------------
     sticks:   dense  smooth     PW     G-vecs:    dense   smooth      PW
     Min          91      41     12                14919     4437     732
     Max          92      42     13                14940     4456     749
     Sum        1099     499    151               179195    53317    8891
 
     Using Slab Decomposition
 


     bravais-lattice index     =            0
     lattice parameter (alat)  =       5.9610  a.u.
     unit-cell volume          =    1113.0592 (a.u.)^3
     number of atoms/cell      =            3
     number of atomic types    =            2
     number of electrons       =        26.00
     number of Kohn-Sham states=           13
     kinetic-energy cutoff     =      50.0000  Ry
     charge density cutoff     =     450.0000  Ry
     scf convergence threshold =      1.0E-11
     mixing beta               =       0.5000
     number of iterations used =            8  plain     mixing
     Exchange-correlation= LDA
                           (   1   1   0   0   0   0   0)

     celldm(1)=   5.961032  celldm(2)=   0.000000  celldm(3)=   0.000000
     celldm(4)=   0.000000  celldm(5)=   0.000000  celldm(6)=   0.000000

     crystal axes: (cart. coord. in units of alat)
               a(1) = (   1.000000   0.000000   0.000000 )  
               a(2) = (  -0.500000   0.866025   0.000000 )  
               a(3) = (   0.000000   0.000000   6.067687 )  

     reciprocal axes: (cart. coord. in units 2 pi/alat)
               b(1) = (  1.000000  0.577350  0.000000 )  
               b(2) = (  0.000000  1.154701  0.000000 )  
               b(3) = (  0.000000  0.000000  0.164807 )  


     PseudoPot. # 1 for Mo read from file:
     /home/theory/phrrpq/sg15_oncv_upf_2020-02-06/Mo_ONCV_PBE-1.2.upf
     MD5 check sum: 2665c9f4159700498d9a5f7573bd8e9f
     Pseudo is Norm-conserving, Zval = 14.0
     Generated using ONCVPSP code by D. R. Hamann
     Using radial grid of  602 points,  6 beta functions with: 
                l(1) =   0
                l(2) =   0
                l(3) =   1
                l(4) =   1
                l(5) =   2
                l(6) =   2

     PseudoPot. # 2 for S  read from file:
     /home/theory/phrrpq/sg15_oncv_upf_2020-02-06/S_ONCV_PBE-1.2.upf
     MD5 check sum: f9d020296ee6110346977bfd66d424f6
     Pseudo is Norm-conserving, Zval =  6.0
     Generated using ONCVPSP code by D. R. Hamann
     Using radial grid of  602 points,  4 beta functions with: 
                l(1) =   0
                l(2) =   0
                l(3) =   1
                l(4) =   1

     atomic species   valence    mass     pseudopotential
        Mo            14.00    95.95000     Mo( 1.00)
        S              6.00    32.06000     S ( 1.00)

     12 Sym. Ops. (no inversion) found



   Cartesian axes

     site n.     atom                  positions (alat units)
         1           Mo  tau(   1) = (   0.0000000   0.0000000   3.0338436  )
         2           S   tau(   2) = (   0.5000000   0.2886751   3.5351291  )
         3           S   tau(   3) = (   0.5000000   0.2886751   2.5325581  )

     number of k points=    19
                       cart. coord. in units 2pi/alat
        k(    1) = (   0.0000000   0.0000000   0.0000000), wk =   0.0138889
        k(    2) = (   0.0000000   0.0962250   0.0000000), wk =   0.0833333
        k(    3) = (   0.0000000   0.1924501   0.0000000), wk =   0.0833333
        k(    4) = (   0.0000000   0.2886751   0.0000000), wk =   0.0833333
        k(    5) = (   0.0000000   0.3849002   0.0000000), wk =   0.0833333
        k(    6) = (   0.0000000   0.4811252   0.0000000), wk =   0.0833333
        k(    7) = (   0.0000000  -0.5773503   0.0000000), wk =   0.0416667
        k(    8) = (   0.0833333   0.1443376   0.0000000), wk =   0.0833333
        k(    9) = (   0.0833333   0.2405626   0.0000000), wk =   0.1666667
        k(   10) = (   0.0833333   0.3367877   0.0000000), wk =   0.1666667
        k(   11) = (   0.0833333   0.4330127   0.0000000), wk =   0.1666667
        k(   12) = (   0.0833333   0.5292377   0.0000000), wk =   0.1666667
        k(   13) = (   0.1666667   0.2886751   0.0000000), wk =   0.0833333
        k(   14) = (   0.1666667   0.3849002   0.0000000), wk =   0.1666667
        k(   15) = (   0.1666667   0.4811252   0.0000000), wk =   0.1666667
        k(   16) = (   0.1666667   0.5773503   0.0000000), wk =   0.0833333
        k(   17) = (   0.2500000   0.4330127   0.0000000), wk =   0.0833333
        k(   18) = (   0.2500000   0.5292377   0.0000000), wk =   0.1666667
        k(   19) = (   0.3333333   0.5773503   0.0000000), wk =   0.0277778

     Dense  grid:   179195 G-vectors     FFT dimensions: (  45,  45, 250)

     Smooth grid:    53317 G-vectors     FFT dimensions: (  27,  27, 180)

     Estimated max dynamical RAM per process >      15.83 MB

     Estimated total dynamical RAM >     190.00 MB
 ----2D----2D----2D----2D----2D----2D----2D----2D----2D----2D----2D----2D
  The code is running with the 2D cutoff
  Please refer to:
  Sohier, T., Calandra, M., & Mauri, F. (2017), 
  Density functional perturbation theory for gated two-dimensional heterostructu
 res:
  Theoretical developments and application to flexural phonons in graphene.
  Physical Review B, 96(7), 75448. https://doi.org/10.1103/PhysRevB.96.075448
 ----2D----2D----2D----2D----2D----2D----2D----2D----2D----2D----2D----2D
     Cannot read rho : file not found

     Initial potential from superposition of free atoms

     starting charge   25.88865, renormalised to   26.00000

     negative rho (up, down):  9.550E-05 0.000E+00
     Starting wfcs are    0 atomic +   13 random wfcs

     total cpu time spent up to now is        0.7 secs

     Self-consistent Calculation

     iteration #  1     ecut=    50.00 Ry     beta= 0.50
     Davidson diagonalization with overlap
     ethr =  1.00E-05,  avg # of iterations = 27.9

     negative rho (up, down):  1.828E-05 0.000E+00

     total cpu time spent up to now is        2.4 secs

     total energy              =    -177.99952390 Ry
     estimated scf accuracy    <       0.09657541 Ry

     iteration #  2     ecut=    50.00 Ry     beta= 0.50
     Davidson diagonalization with overlap
     ethr =  3.71E-04,  avg # of iterations =  2.0

     negative rho (up, down):  6.490E-06 0.000E+00

     total cpu time spent up to now is        2.7 secs

     total energy              =    -178.01687096 Ry
     estimated scf accuracy    <       0.00807437 Ry

     iteration #  3     ecut=    50.00 Ry     beta= 0.50
     Davidson diagonalization with overlap
     ethr =  3.11E-05,  avg # of iterations =  5.5

     negative rho (up, down):  1.225E-05 0.000E+00

     total cpu time spent up to now is        3.0 secs

     total energy              =    -178.01731144 Ry
     estimated scf accuracy    <       0.01163106 Ry

     iteration #  4     ecut=    50.00 Ry     beta= 0.50
     Davidson diagonalization with overlap
     ethr =  3.11E-05,  avg # of iterations =  3.1

     negative rho (up, down):  3.553E-06 0.000E+00

     total cpu time spent up to now is        3.3 secs

     total energy              =    -178.01805442 Ry
     estimated scf accuracy    <       0.00109131 Ry

     iteration #  5     ecut=    50.00 Ry     beta= 0.50
     Davidson diagonalization with overlap
     ethr =  4.20E-06,  avg # of iterations =  5.8

     negative rho (up, down):  5.482E-07 0.000E+00

     total cpu time spent up to now is        3.6 secs

     total energy              =    -178.01832737 Ry
     estimated scf accuracy    <       0.00656453 Ry

     iteration #  6     ecut=    50.00 Ry     beta= 0.50
     Davidson diagonalization with overlap
     ethr =  4.20E-06,  avg # of iterations =  4.0

     negative rho (up, down):  5.269E-07 0.000E+00

     total cpu time spent up to now is        3.9 secs

     total energy              =    -178.01844473 Ry
     estimated scf accuracy    <       0.00097564 Ry

     iteration #  7     ecut=    50.00 Ry     beta= 0.50
     Davidson diagonalization with overlap
     ethr =  3.75E-06,  avg # of iterations =  4.4

     negative rho (up, down):  2.872E-07 0.000E+00

     total cpu time spent up to now is        4.2 secs

     total energy              =    -178.01870847 Ry
     estimated scf accuracy    <       0.00002992 Ry

     iteration #  8     ecut=    50.00 Ry     beta= 0.50
     Davidson diagonalization with overlap
     ethr =  1.15E-07,  avg # of iterations =  4.8

     negative rho (up, down):  1.667E-07 0.000E+00

     total cpu time spent up to now is        4.5 secs

     total energy              =    -178.01871768 Ry
     estimated scf accuracy    <       0.00004772 Ry

     iteration #  9     ecut=    50.00 Ry     beta= 0.50
     Davidson diagonalization with overlap
     ethr =  1.15E-07,  avg # of iterations =  2.2

     negative rho (up, down):  6.305E-08 0.000E+00

     total cpu time spent up to now is        4.7 secs

     total energy              =    -178.01871015 Ry
     estimated scf accuracy    <       0.00002276 Ry

     iteration # 10     ecut=    50.00 Ry     beta= 0.50
     Davidson diagonalization with overlap
     ethr =  8.75E-08,  avg # of iterations =  4.4

     negative rho (up, down):  1.866E-08 0.000E+00

     total cpu time spent up to now is        5.0 secs

     total energy              =    -178.01871756 Ry
     estimated scf accuracy    <       0.00000516 Ry

     iteration # 11     ecut=    50.00 Ry     beta= 0.50
     Davidson diagonalization with overlap
     ethr =  1.98E-08,  avg # of iterations =  1.6

     total cpu time spent up to now is        6.1 secs

     total energy              =    -178.01871704 Ry
     estimated scf accuracy    <       0.00000289 Ry

     iteration # 12     ecut=    50.00 Ry     beta= 0.50
     Davidson diagonalization with overlap
     ethr =  1.11E-08,  avg # of iterations =  3.7

     total cpu time spent up to now is        6.4 secs

     total energy              =    -178.01871741 Ry
     estimated scf accuracy    <       0.00000011 Ry

     iteration # 13     ecut=    50.00 Ry     beta= 0.50
     Davidson diagonalization with overlap
     ethr =  4.04E-10,  avg # of iterations =  7.1

     total cpu time spent up to now is        6.8 secs

     total energy              =    -178.01871752 Ry
     estimated scf accuracy    <       0.00000167 Ry

     iteration # 14     ecut=    50.00 Ry     beta= 0.50
     Davidson diagonalization with overlap
     ethr =  4.04E-10,  avg # of iterations =  4.9

     total cpu time spent up to now is        7.1 secs

     total energy              =    -178.01871749 Ry
     estimated scf accuracy    <       0.00000039 Ry

     iteration # 15     ecut=    50.00 Ry     beta= 0.50
     Davidson diagonalization with overlap
     ethr =  4.04E-10,  avg # of iterations =  4.9

     total cpu time spent up to now is        7.4 secs

     total energy              =    -178.01871756 Ry
     estimated scf accuracy    <          3.4E-10 Ry

     iteration # 16     ecut=    50.00 Ry     beta= 0.50
     Davidson diagonalization with overlap
     ethr =  1.32E-12,  avg # of iterations = 10.7

     total cpu time spent up to now is        8.1 secs

     total energy              =    -178.01871756 Ry
     estimated scf accuracy    <       0.00000002 Ry

     iteration # 17     ecut=    50.00 Ry     beta= 0.50
     Davidson diagonalization with overlap
     ethr =  1.32E-12,  avg # of iterations =  8.5

     total cpu time spent up to now is        8.6 secs

     total energy              =    -178.01871756 Ry
     estimated scf accuracy    <          1.5E-09 Ry

     iteration # 18     ecut=    50.00 Ry     beta= 0.50
     Davidson diagonalization with overlap
     ethr =  1.32E-12,  avg # of iterations =  5.1

     total cpu time spent up to now is        8.9 secs

     End of self-consistent calculation

          k = 0.0000 0.0000 0.0000 (  6669 PWs)   bands (ev):

   -66.7947 -40.9312 -40.6722 -40.6722 -20.2297 -18.9317 -11.8124  -8.6190
    -8.6190  -8.0058  -7.4834  -7.4834  -6.2513

          k = 0.0000 0.0962 0.0000 (  6691 PWs)   bands (ev):

   -66.7918 -40.9255 -40.7010 -40.6788 -20.1217 -18.8858 -11.6875  -8.8623
    -8.5058  -8.4204  -7.6552  -7.2353  -6.2868

          k = 0.0000 0.1925 0.0000 (  6655 PWs)   bands (ev):

   -66.7840 -40.9101 -40.7787 -40.6965 -19.8142 -18.7550 -11.3713  -9.4210
    -9.0621  -8.1907  -8.0581  -7.1815  -6.4824

          k = 0.0000 0.2887 0.0000 (  6638 PWs)   bands (ev):

   -66.7733 -40.8890 -40.8835 -40.7206 -19.3567 -18.5620 -11.1373  -9.9040
    -9.7351  -8.5079  -7.7514  -7.4599  -6.8938

          k = 0.0000 0.3849 0.0000 (  6632 PWs)   bands (ev):

   -66.7626 -40.9865 -40.8678 -40.7446 -18.8390 -18.3485 -11.4000 -10.3685
   -10.0080  -8.8855  -7.7809  -7.3188  -7.1348

          k = 0.0000 0.4811 0.0000 (  6630 PWs)   bands (ev):

   -66.7547 -41.0610 -40.8523 -40.7621 -18.4028 -18.1755 -11.8148 -10.8373
   -10.1158  -9.1303  -7.9803  -7.0279  -6.9405

          k = 0.0000-0.5774 0.0000 (  6638 PWs)   bands (ev):

   -66.7518 -41.0880 -40.8465 -40.7685 -18.2260 -18.1080 -11.9944 -11.0118
   -10.1972  -9.2147  -8.0436  -6.9320  -6.7614

          k = 0.0833 0.1443 0.0000 (  6679 PWs)   bands (ev):

   -66.7865 -40.9150 -40.7527 -40.6924 -19.9139 -18.7973 -11.4630  -9.2555
    -8.8461  -8.3006  -8.0592  -7.0545  -6.4019

          k = 0.0833 0.2406 0.0000 (  6646 PWs)   bands (ev):

   -66.7772 -40.8968 -40.8402 -40.7170 -19.5303 -18.6343 -11.1536  -9.7605
    -9.3933  -8.6415  -7.9798  -7.0977  -6.7130

          k = 0.0833 0.3368 0.0000 (  6636 PWs)   bands (ev):

   -66.7665 -40.9396 -40.8756 -40.7456 -19.0388 -18.4276 -11.1752 -10.0570
    -9.9563  -9.0309  -7.7664  -7.4150  -6.9663

          k = 0.0833 0.4330 0.0000 (  6645 PWs)   bands (ev):

   -66.7572 -41.0244 -40.8572 -40.7702 -18.5525 -18.2281 -11.5540 -10.6716
    -9.9952  -9.2017  -7.7695  -7.6808  -6.8161

          k = 0.0833 0.5292 0.0000 (  6635 PWs)   bands (ev):

   -66.7518 -41.0729 -40.8466 -40.7844 -18.2342 -18.1020 -11.8487 -11.0335
   -10.1315  -9.2517  -7.9905  -7.5403  -6.5736

          k = 0.1667 0.2887 0.0000 (  6639 PWs)   bands (ev):

   -66.7679 -40.9156 -40.8784 -40.7529 -19.1099 -18.4548 -11.0631  -9.9160
    -9.8042  -9.3116  -8.0014  -7.1323  -6.8986

          k = 0.1667 0.3849 0.0000 (  6633 PWs)   bands (ev):

   -66.7586 -40.9862 -40.8601 -40.7925 -18.6393 -18.2543 -11.2746 -10.5167
    -9.8120  -9.4379  -8.3321  -7.4529  -6.8189

          k = 0.1667 0.4811 0.0000 (  6649 PWs)   bands (ev):

   -66.7518 -41.0361 -40.8466 -40.8227 -18.2504 -18.0901 -11.5059 -11.0722
    -9.9320  -9.3469  -8.4499  -7.8463  -6.5706

          k = 0.1667 0.5774 0.0000 (  6656 PWs)   bands (ev):

   -66.7493 -41.0541 -40.8417 -40.8340 -18.0956 -18.0254 -11.5950 -11.2750
   -10.0634  -9.2665  -8.4367  -8.0374  -6.3933

          k = 0.2500 0.4330 0.0000 (  6651 PWs)   bands (ev):

   -66.7518 -41.0115 -40.8481 -40.8466 -18.2584 -18.0841 -11.2970 -11.0895
    -9.6802  -9.4013  -9.0441  -7.7577  -6.5996

          k = 0.2500 0.5292 0.0000 (  6642 PWs)   bands (ev):

   -66.7479 -41.0166 -40.8898 -40.8388 -18.0203 -17.9748 -11.4495 -11.1887
    -9.9387  -9.3080  -9.2015  -8.1069  -6.2908

          k = 0.3333 0.5774 0.0000 (  6639 PWs)   bands (ev):

   -66.7464 -40.9848 -40.9391 -40.8360 -17.9345 -17.9289 -11.6000 -10.7949
   -10.2441  -9.6080  -9.0499  -8.2960  -6.1018

     highest occupied level (ev):    -6.1018

!    total energy              =    -178.01871756 Ry
     estimated scf accuracy    <          2.9E-12 Ry

     The total energy is the sum of the following terms:
     one-electron contribution =   -1819.97040525 Ry
     hartree contribution      =     904.67811137 Ry
     xc contribution           =     -24.39824642 Ry
     ewald contribution        =     761.67182274 Ry

     convergence has been achieved in  18 iterations

     Forces acting on atoms (cartesian axes, Ry/au):

     atom    1 type  1   force =     0.00000000    0.00000000    0.00000000
     atom    2 type  2   force =     0.00000000    0.00000000   -0.02036018
     atom    3 type  2   force =     0.00000000    0.00000000    0.02036018

     Total force =     0.028794     Total SCF correction =     0.000001


     Computing stress (Cartesian axis) and pressure

          total   stress  (Ry/bohr**3)                   (kbar)     P=      -14.32
  -0.00008894   0.00000000   0.00000000          -13.08        0.00        0.00
   0.00000000  -0.00008894   0.00000000            0.00      -13.08        0.00
   0.00000000   0.00000000  -0.00011417            0.00        0.00      -16.79


     Writing output data file /tmp/x0.000y0.000s0.990/x0.000y0.000s0.990.save/
 
     init_run     :      0.46s CPU      0.68s WALL (       1 calls)
     electrons    :      7.12s CPU      8.20s WALL (       1 calls)
     forces       :      0.10s CPU      0.10s WALL (       1 calls)
     stress       :      0.21s CPU      0.21s WALL (       1 calls)

     Called by init_run:
     wfcinit      :      0.07s CPU      0.27s WALL (       1 calls)
     potinit      :      0.07s CPU      0.08s WALL (       1 calls)
     hinit0       :      0.10s CPU      0.12s WALL (       1 calls)

     Called by electrons:
     c_bands      :      6.54s CPU      7.59s WALL (      18 calls)
     sum_band     :      0.45s CPU      0.46s WALL (      18 calls)
     v_of_rho     :      0.06s CPU      0.06s WALL (      19 calls)
     mix_rho      :      0.04s CPU      0.05s WALL (      18 calls)

     Called by c_bands:
     init_us_2    :      0.12s CPU      0.12s WALL (     741 calls)
     cegterg      :      6.24s CPU      6.41s WALL (     361 calls)

     Called by *egterg:
     cdiaghg      :      1.82s CPU      2.05s WALL (    2443 calls)
     h_psi        :      3.35s CPU      3.47s WALL (    2481 calls)
     g_psi        :      0.03s CPU      0.03s WALL (    2101 calls)

     Called by h_psi:
     h_psi:calbec :      0.16s CPU      0.18s WALL (    2481 calls)
     vloc_psi     :      3.08s CPU      3.18s WALL (    2481 calls)
     add_vuspsi   :      0.08s CPU      0.08s WALL (    2481 calls)

     General routines
     calbec       :      0.17s CPU      0.18s WALL (    2576 calls)
     fft          :      0.05s CPU      0.06s WALL (      97 calls)
     ffts         :      0.01s CPU      0.01s WALL (      37 calls)
     fftw         :      3.05s CPU      3.15s WALL (   44928 calls)
     interpolate  :      0.01s CPU      0.01s WALL (      19 calls)
 
     Parallel routines
 
     PWSCF        :      7.92s CPU      9.31s WALL

 
   This run was terminated on:  16:56:35  27Sep2025            

=------------------------------------------------------------------------------=
   JOB DONE.
=------------------------------------------------------------------------------=
