MPI startup(): Warning: I_MPI_PMI_LIBRARY will be ignored since the hydra process manager was found
MPI startup(): Warning: I_MPI_PMI_LIBRARY will be ignored since the hydra process manager was found
MPI startup(): Warning: I_MPI_PMI_LIBRARY will be ignored since the hydra process manager was found
MPI startup(): Warning: I_MPI_PMI_LIBRARY will be ignored since the hydra process manager was found
MPI startup(): Warning: I_MPI_PMI_LIBRARY will be ignored since the hydra process manager was found
MPI startup(): Warning: I_MPI_PMI_LIBRARY will be ignored since the hydra process manager was found
MPI startup(): Warning: I_MPI_PMI_LIBRARY will be ignored since the hydra process manager was found
MPI startup(): Warning: I_MPI_PMI_LIBRARY will be ignored since the hydra process manager was found
MPI startup(): Warning: I_MPI_PMI_LIBRARY will be ignored since the hydra process manager was found
MPI startup(): Warning: I_MPI_PMI_LIBRARY will be ignored since the hydra process manager was found
MPI startup(): Warning: I_MPI_PMI_LIBRARY will be ignored since the hydra process manager was found
MPI startup(): Warning: I_MPI_PMI_LIBRARY will be ignored since the hydra process manager was found

     Program PWSCF v.6.8 starts on 27Sep2025 at 16:56:26 

     This program is part of the open-source Quantum ESPRESSO suite
     for quantum simulation of materials; please cite
         "P. Giannozzi et al., J. Phys.:Condens. Matter 21 395502 (2009);
         "P. Giannozzi et al., J. Phys.:Condens. Matter 29 465901 (2017);
         "P. Giannozzi et al., J. Chem. Phys. 152 154105 (2020);
          URL http://www.quantum-espresso.org", 
     in publications or presentations arising from this work. More details at
     http://www.quantum-espresso.org/quote

     Parallel version (MPI & OpenMP), running on      12 processor cores
     Number of MPI processes:                12
     Threads/MPI process:                     1

     MPI processes distributed on     1 nodes
     R & G space division:  proc/nbgrp/npool/nimage =      12
     169489 MiB available memory on the printing compute node when the environment starts
 
     Reading input from x0.000y0.000s0.980.scf.in
Warning: card &CELL ignored
Warning: card / ignored
Warning: card &FCP ignored
Warning: card / ignored
Warning: card &RISM ignored
Warning: card / ignored

     Current dimensions of program PWSCF are:
     Max number of different atomic species (ntypx) = 10
     Max number of k-points (npk) =  40000
     Max angular momentum in pseudopotentials (lmaxx) =  4

     IMPORTANT: XC functional enforced from input :
     Exchange-correlation= LDA
                           (   1   1   0   0   0   0   0)
     Any further DFT definition will be discarded
     Please, verify this is what you really want

     Message from routine setup:
     no reason to have ecutrho>4*ecutwfc
     Message from routine setup:
     using ibrav=0 with symmetry is DISCOURAGED, use correct ibrav instead

     Subspace diagonalization in iterative solution of the eigenvalue problem:
     one sub-group per band group will be used
     scalapack distributed-memory algorithm (size of sub-group:  3*  3 procs)

 
     Parallelization info
     --------------------
     sticks:   dense  smooth     PW     G-vecs:    dense   smooth      PW
     Min          89      39     12                14633     4323     722
     Max          90      40     13                14664     4348     737
     Sum        1069     475    151               175697    52045    8747
 
     Using Slab Decomposition
 


     bravais-lattice index     =            0
     lattice parameter (alat)  =       5.9008  a.u.
     unit-cell volume          =    1090.6867 (a.u.)^3
     number of atoms/cell      =            3
     number of atomic types    =            2
     number of electrons       =        26.00
     number of Kohn-Sham states=           13
     kinetic-energy cutoff     =      50.0000  Ry
     charge density cutoff     =     450.0000  Ry
     scf convergence threshold =      1.0E-11
     mixing beta               =       0.5000
     number of iterations used =            8  plain     mixing
     Exchange-correlation= LDA
                           (   1   1   0   0   0   0   0)

     celldm(1)=   5.900820  celldm(2)=   0.000000  celldm(3)=   0.000000
     celldm(4)=   0.000000  celldm(5)=   0.000000  celldm(6)=   0.000000

     crystal axes: (cart. coord. in units of alat)
               a(1) = (   1.000000   0.000000   0.000000 )  
               a(2) = (  -0.500000   0.866025   0.000000 )  
               a(3) = (   0.000000   0.000000   6.129602 )  

     reciprocal axes: (cart. coord. in units 2 pi/alat)
               b(1) = (  1.000000  0.577350  0.000000 )  
               b(2) = (  0.000000  1.154701  0.000000 )  
               b(3) = (  0.000000  0.000000  0.163143 )  


     PseudoPot. # 1 for Mo read from file:
     /home/theory/phrrpq/sg15_oncv_upf_2020-02-06/Mo_ONCV_PBE-1.2.upf
     MD5 check sum: 2665c9f4159700498d9a5f7573bd8e9f
     Pseudo is Norm-conserving, Zval = 14.0
     Generated using ONCVPSP code by D. R. Hamann
     Using radial grid of  602 points,  6 beta functions with: 
                l(1) =   0
                l(2) =   0
                l(3) =   1
                l(4) =   1
                l(5) =   2
                l(6) =   2

     PseudoPot. # 2 for S  read from file:
     /home/theory/phrrpq/sg15_oncv_upf_2020-02-06/S_ONCV_PBE-1.2.upf
     MD5 check sum: f9d020296ee6110346977bfd66d424f6
     Pseudo is Norm-conserving, Zval =  6.0
     Generated using ONCVPSP code by D. R. Hamann
     Using radial grid of  602 points,  4 beta functions with: 
                l(1) =   0
                l(2) =   0
                l(3) =   1
                l(4) =   1

     atomic species   valence    mass     pseudopotential
        Mo            14.00    95.95000     Mo( 1.00)
        S              6.00    32.06000     S ( 1.00)

     12 Sym. Ops. (no inversion) found



   Cartesian axes

     site n.     atom                  positions (alat units)
         1           Mo  tau(   1) = (   0.0000000   0.0000000   3.0648011  )
         2           S   tau(   2) = (   0.5000000   0.2886751   3.5747560  )
         3           S   tau(   3) = (   0.5000000   0.2886751   2.5548463  )

     number of k points=    19
                       cart. coord. in units 2pi/alat
        k(    1) = (   0.0000000   0.0000000   0.0000000), wk =   0.0138889
        k(    2) = (   0.0000000   0.0962250   0.0000000), wk =   0.0833333
        k(    3) = (   0.0000000   0.1924501   0.0000000), wk =   0.0833333
        k(    4) = (   0.0000000   0.2886751   0.0000000), wk =   0.0833333
        k(    5) = (   0.0000000   0.3849002   0.0000000), wk =   0.0833333
        k(    6) = (   0.0000000   0.4811252   0.0000000), wk =   0.0833333
        k(    7) = (   0.0000000  -0.5773503   0.0000000), wk =   0.0416667
        k(    8) = (   0.0833333   0.1443376   0.0000000), wk =   0.0833333
        k(    9) = (   0.0833333   0.2405626   0.0000000), wk =   0.1666667
        k(   10) = (   0.0833333   0.3367877   0.0000000), wk =   0.1666667
        k(   11) = (   0.0833333   0.4330127   0.0000000), wk =   0.1666667
        k(   12) = (   0.0833333   0.5292377   0.0000000), wk =   0.1666667
        k(   13) = (   0.1666667   0.2886751   0.0000000), wk =   0.0833333
        k(   14) = (   0.1666667   0.3849002   0.0000000), wk =   0.1666667
        k(   15) = (   0.1666667   0.4811252   0.0000000), wk =   0.1666667
        k(   16) = (   0.1666667   0.5773503   0.0000000), wk =   0.0833333
        k(   17) = (   0.2500000   0.4330127   0.0000000), wk =   0.0833333
        k(   18) = (   0.2500000   0.5292377   0.0000000), wk =   0.1666667
        k(   19) = (   0.3333333   0.5773503   0.0000000), wk =   0.0277778

     Dense  grid:   175697 G-vectors     FFT dimensions: (  40,  40, 250)

     Smooth grid:    52045 G-vectors     FFT dimensions: (  27,  27, 180)

     Estimated max dynamical RAM per process >      15.04 MB

     Estimated total dynamical RAM >     180.43 MB
 ----2D----2D----2D----2D----2D----2D----2D----2D----2D----2D----2D----2D
  The code is running with the 2D cutoff
  Please refer to:
  Sohier, T., Calandra, M., & Mauri, F. (2017), 
  Density functional perturbation theory for gated two-dimensional heterostructu
 res:
  Theoretical developments and application to flexural phonons in graphene.
  Physical Review B, 96(7), 75448. https://doi.org/10.1103/PhysRevB.96.075448
 ----2D----2D----2D----2D----2D----2D----2D----2D----2D----2D----2D----2D
     Cannot read rho : file not found

     Initial potential from superposition of free atoms

     starting charge   25.88865, renormalised to   26.00000

     negative rho (up, down):  9.136E-05 0.000E+00
     Starting wfcs are    0 atomic +   13 random wfcs

     total cpu time spent up to now is        0.8 secs

     Self-consistent Calculation

     iteration #  1     ecut=    50.00 Ry     beta= 0.50
     Davidson diagonalization with overlap
     ethr =  1.00E-05,  avg # of iterations = 28.0

     negative rho (up, down):  1.675E-05 0.000E+00

     total cpu time spent up to now is        2.6 secs

     total energy              =    -177.99812339 Ry
     estimated scf accuracy    <       0.10074984 Ry

     iteration #  2     ecut=    50.00 Ry     beta= 0.50
     Davidson diagonalization with overlap
     ethr =  3.87E-04,  avg # of iterations =  2.0

     negative rho (up, down):  7.281E-06 0.000E+00

     total cpu time spent up to now is        2.9 secs

     total energy              =    -178.01538205 Ry
     estimated scf accuracy    <       0.01317416 Ry

     iteration #  3     ecut=    50.00 Ry     beta= 0.50
     Davidson diagonalization with overlap
     ethr =  5.07E-05,  avg # of iterations =  5.2

     negative rho (up, down):  1.123E-05 0.000E+00

     total cpu time spent up to now is        3.2 secs

     total energy              =    -178.01706169 Ry
     estimated scf accuracy    <       0.01575342 Ry

     iteration #  4     ecut=    50.00 Ry     beta= 0.50
     Davidson diagonalization with overlap
     ethr =  5.07E-05,  avg # of iterations =  2.6

     negative rho (up, down):  2.946E-06 0.000E+00

     total cpu time spent up to now is        3.5 secs

     total energy              =    -178.01794581 Ry
     estimated scf accuracy    <       0.00152753 Ry

     iteration #  5     ecut=    50.00 Ry     beta= 0.50
     Davidson diagonalization with overlap
     ethr =  5.88E-06,  avg # of iterations =  5.9

     negative rho (up, down):  1.774E-07 0.000E+00

     total cpu time spent up to now is        3.9 secs

     total energy              =    -178.01917988 Ry
     estimated scf accuracy    <       0.01097959 Ry

     iteration #  6     ecut=    50.00 Ry     beta= 0.50
     Davidson diagonalization with overlap
     ethr =  5.88E-06,  avg # of iterations =  3.1

     negative rho (up, down):  3.864E-07 0.000E+00

     total cpu time spent up to now is        4.1 secs

     total energy              =    -178.01819201 Ry
     estimated scf accuracy    <       0.00447434 Ry

     iteration #  7     ecut=    50.00 Ry     beta= 0.50
     Davidson diagonalization with overlap
     ethr =  5.88E-06,  avg # of iterations =  4.8

     negative rho (up, down):  3.491E-07 0.000E+00

     total cpu time spent up to now is        4.5 secs

     total energy              =    -178.01907932 Ry
     estimated scf accuracy    <       0.00002804 Ry

     iteration #  8     ecut=    50.00 Ry     beta= 0.50
     Davidson diagonalization with overlap
     ethr =  1.08E-07,  avg # of iterations =  7.7

     negative rho (up, down):  3.789E-08 0.000E+00

     total cpu time spent up to now is        5.0 secs

     total energy              =    -178.01909448 Ry
     estimated scf accuracy    <       0.00085514 Ry

     iteration #  9     ecut=    50.00 Ry     beta= 0.50
     Davidson diagonalization with overlap
     ethr =  1.08E-07,  avg # of iterations =  4.7

     negative rho (up, down):  5.086E-08 0.000E+00

     total cpu time spent up to now is        5.3 secs

     total energy              =    -178.01902411 Ry
     estimated scf accuracy    <       0.00033895 Ry

     iteration # 10     ecut=    50.00 Ry     beta= 0.50
     Davidson diagonalization with overlap
     ethr =  1.08E-07,  avg # of iterations =  6.4

     total cpu time spent up to now is        5.7 secs

     total energy              =    -178.01907620 Ry
     estimated scf accuracy    <       0.00000043 Ry

     iteration # 11     ecut=    50.00 Ry     beta= 0.50
     Davidson diagonalization with overlap
     ethr =  1.64E-09,  avg # of iterations =  8.3

     total cpu time spent up to now is        6.2 secs

     total energy              =    -178.01907404 Ry
     estimated scf accuracy    <       0.00002107 Ry

     iteration # 12     ecut=    50.00 Ry     beta= 0.50
     Davidson diagonalization with overlap
     ethr =  1.64E-09,  avg # of iterations =  7.3

     total cpu time spent up to now is        6.7 secs

     total energy              =    -178.01907543 Ry
     estimated scf accuracy    <       0.00000074 Ry

     iteration # 13     ecut=    50.00 Ry     beta= 0.50
     Davidson diagonalization with overlap
     ethr =  1.64E-09,  avg # of iterations =  6.1

     total cpu time spent up to now is        7.1 secs

     total energy              =    -178.01907574 Ry
     estimated scf accuracy    <       0.00000144 Ry

     iteration # 14     ecut=    50.00 Ry     beta= 0.50
     Davidson diagonalization with overlap
     ethr =  1.64E-09,  avg # of iterations =  2.9

     total cpu time spent up to now is        7.3 secs

     total energy              =    -178.01907571 Ry
     estimated scf accuracy    <       0.00000047 Ry

     iteration # 15     ecut=    50.00 Ry     beta= 0.50
     Davidson diagonalization with overlap
     ethr =  1.64E-09,  avg # of iterations =  3.7

     total cpu time spent up to now is        7.6 secs

     total energy              =    -178.01907578 Ry
     estimated scf accuracy    <       0.00000002 Ry

     iteration # 16     ecut=    50.00 Ry     beta= 0.50
     Davidson diagonalization with overlap
     ethr =  8.55E-11,  avg # of iterations =  4.3

     total cpu time spent up to now is        7.9 secs

     total energy              =    -178.01907579 Ry
     estimated scf accuracy    <       0.00000002 Ry

     iteration # 17     ecut=    50.00 Ry     beta= 0.50
     Davidson diagonalization with overlap
     ethr =  6.89E-11,  avg # of iterations =  1.7

     total cpu time spent up to now is        8.1 secs

     total energy              =    -178.01907578 Ry
     estimated scf accuracy    <       0.00000003 Ry

     iteration # 18     ecut=    50.00 Ry     beta= 0.50
     Davidson diagonalization with overlap
     ethr =  6.89E-11,  avg # of iterations =  3.2

     total cpu time spent up to now is        8.4 secs

     total energy              =    -178.01907578 Ry
     estimated scf accuracy    <          1.3E-09 Ry

     iteration # 19     ecut=    50.00 Ry     beta= 0.50
     Davidson diagonalization with overlap
     ethr =  4.97E-12,  avg # of iterations =  5.8

     total cpu time spent up to now is        8.8 secs

     total energy              =    -178.01907579 Ry
     estimated scf accuracy    <          3.8E-09 Ry

     iteration # 20     ecut=    50.00 Ry     beta= 0.50
     Davidson diagonalization with overlap
     ethr =  4.97E-12,  avg # of iterations =  6.6

     total cpu time spent up to now is        9.2 secs

     total energy              =    -178.01907580 Ry
     estimated scf accuracy    <       0.00000004 Ry

     iteration # 21     ecut=    50.00 Ry     beta= 0.50
     Davidson diagonalization with overlap
     ethr =  4.97E-12,  avg # of iterations =  7.3

     total cpu time spent up to now is        9.6 secs

     total energy              =    -178.01907579 Ry
     estimated scf accuracy    <       0.00000014 Ry

     iteration # 22     ecut=    50.00 Ry     beta= 0.50
     Davidson diagonalization with overlap
     ethr =  4.97E-12,  avg # of iterations =  7.4

     total cpu time spent up to now is       10.1 secs

     total energy              =    -178.01907578 Ry
     estimated scf accuracy    <       0.00000004 Ry

     iteration # 23     ecut=    50.00 Ry     beta= 0.50
     Davidson diagonalization with overlap
     ethr =  4.97E-12,  avg # of iterations =  6.2

     total cpu time spent up to now is       10.5 secs

     total energy              =    -178.01907578 Ry
     estimated scf accuracy    <          3.8E-09 Ry

     iteration # 24     ecut=    50.00 Ry     beta= 0.50
     Davidson diagonalization with overlap
     ethr =  4.97E-12,  avg # of iterations =  5.1

     total cpu time spent up to now is       10.9 secs

     total energy              =    -178.01907578 Ry
     estimated scf accuracy    <          2.5E-11 Ry

     iteration # 25     ecut=    50.00 Ry     beta= 0.50
     Davidson diagonalization with overlap
     ethr =  1.00E-13,  avg # of iterations =  9.1

     total cpu time spent up to now is       11.5 secs

     total energy              =    -178.01907578 Ry
     estimated scf accuracy    <          2.0E-09 Ry

     iteration # 26     ecut=    50.00 Ry     beta= 0.50
     Davidson diagonalization with overlap
     ethr =  1.00E-13,  avg # of iterations =  9.3

     total cpu time spent up to now is       12.6 secs

     total energy              =    -178.01907578 Ry
     estimated scf accuracy    <          8.2E-10 Ry

     iteration # 27     ecut=    50.00 Ry     beta= 0.50
     Davidson diagonalization with overlap
     ethr =  1.00E-13,  avg # of iterations =  7.8

     total cpu time spent up to now is       13.2 secs

     End of self-consistent calculation

          k = 0.0000 0.0000 0.0000 (  6585 PWs)   bands (ev):

   -66.7306 -40.8910 -40.5896 -40.5896 -20.2882 -19.0049 -11.8642  -8.5216
    -8.5216  -8.0899  -7.3665  -7.3665  -6.3440

          k = 0.0000 0.0962 0.0000 (  6573 PWs)   bands (ev):

   -66.7274 -40.8847 -40.6214 -40.5968 -20.1759 -18.9556 -11.7336  -8.7742
    -8.4566  -8.4037  -7.5451  -7.1780  -6.3680

          k = 0.0000 0.1925 0.0000 (  6555 PWs)   bands (ev):

   -66.7185 -40.8676 -40.7073 -40.6164 -19.8554 -18.8151 -11.4028  -9.3551
    -9.0880  -8.0763  -7.9629  -7.1684  -6.5338

          k = 0.0000 0.2887 0.0000 (  6526 PWs)   bands (ev):

   -66.7062 -40.8442 -40.8229 -40.6429 -19.3768 -18.6071 -11.1534  -9.8661
    -9.7704  -8.4275  -7.6231  -7.4823  -6.9233

          k = 0.0000 0.3849 0.0000 (  6490 PWs)   bands (ev):

   -66.6940 -40.9365 -40.8206 -40.6693 -18.8314 -18.3757 -11.4234 -10.4232
    -9.9971  -8.8167  -7.8264  -7.1850  -7.1505

          k = 0.0000 0.4811 0.0000 (  6500 PWs)   bands (ev):

   -66.6850 -41.0184 -40.8033 -40.6886 -18.3671 -18.1871 -11.8660 -10.9116
   -10.1281  -9.0688  -8.0375  -6.9370  -6.9004

          k = 0.0000-0.5774 0.0000 (  6482 PWs)   bands (ev):

   -66.6817 -41.0482 -40.7970 -40.6956 -18.1771 -18.1131 -12.0608 -11.0943
   -10.2179  -9.1555  -8.1042  -6.8096  -6.7513

          k = 0.0833 0.1443 0.0000 (  6567 PWs)   bands (ev):

   -66.7213 -40.8731 -40.6786 -40.6118 -19.9593 -18.8606 -11.4988  -9.1828
    -8.8743  -8.1905  -7.9700  -7.0176  -6.4616

          k = 0.0833 0.2406 0.0000 (  6508 PWs)   bands (ev):

   -66.7107 -40.8528 -40.7752 -40.6390 -19.5587 -18.6851 -11.1730  -9.7113
    -9.4214  -8.5857  -7.8641  -7.0809  -6.7412

          k = 0.0833 0.3368 0.0000 (  6505 PWs)   bands (ev):

   -66.6985 -40.8847 -40.8293 -40.6705 -19.0425 -18.4616 -11.1885 -10.0929
    -9.9310  -9.0014  -7.6896  -7.4219  -6.9403

          k = 0.0833 0.4330 0.0000 (  6499 PWs)   bands (ev):

   -66.6879 -40.9782 -40.8088 -40.6976 -18.5272 -18.2447 -11.5897 -10.7275
    -9.9927  -9.1760  -7.8011  -7.6305  -6.7543

          k = 0.0833 0.5292 0.0000 (  6489 PWs)   bands (ev):

   -66.6817 -41.0315 -40.7970 -40.7132 -18.1864 -18.1068 -11.9092 -11.1051
   -10.1458  -9.2195  -8.0412  -7.4819  -6.5145

          k = 0.1667 0.2887 0.0000 (  6511 PWs)   bands (ev):

   -66.7001 -40.8582 -40.8324 -40.6786 -19.1175 -18.4913 -11.0719  -9.8832
    -9.8152  -9.3193  -7.9337  -7.1203  -6.8732

          k = 0.1667 0.3849 0.0000 (  6523 PWs)   bands (ev):

   -66.6895 -40.9360 -40.8120 -40.7223 -18.6199 -18.2735 -11.2961 -10.5413
    -9.7874  -9.4662  -8.3074  -7.4595  -6.7656

          k = 0.1667 0.4811 0.0000 (  6507 PWs)   bands (ev):

   -66.6817 -40.9910 -40.7970 -40.7557 -18.2047 -18.0941 -11.5524 -11.1214
    -9.9296  -9.3664  -8.4212  -7.8772  -6.5167

          k = 0.1667 0.5774 0.0000 (  6498 PWs)   bands (ev):

   -66.6789 -41.0107 -40.7915 -40.7681 -18.0380 -18.0231 -11.6550 -11.3342
   -10.0706  -9.2761  -8.4042  -8.0833  -6.3394

          k = 0.2500 0.4330 0.0000 (  6523 PWs)   bands (ev):

   -66.6817 -40.9638 -40.7970 -40.7838 -18.2137 -18.0877 -11.3344 -11.1270
    -9.6555  -9.4451  -9.0440  -7.7793  -6.5502

          k = 0.2500 0.5292 0.0000 (  6498 PWs)   bands (ev):

   -66.6772 -40.9692 -40.8299 -40.7884 -17.9678 -17.9577 -11.5019 -11.2400
    -9.9459  -9.2905  -9.2387  -8.1464  -6.2417

          k = 0.3333 0.5774 0.0000 (  6498 PWs)   bands (ev):

   -66.6756 -40.9334 -40.8850 -40.7852 -17.9174 -17.8653 -11.6558 -10.8453
   -10.2748  -9.5773  -9.0885  -8.3415  -6.0558

     highest occupied level (ev):    -6.0558

!    total energy              =    -178.01907578 Ry
     estimated scf accuracy    <          2.1E-12 Ry

     The total energy is the sum of the following terms:
     one-electron contribution =   -1851.50665196 Ry
     hartree contribution      =     920.48818742 Ry
     xc contribution           =     -24.43222816 Ry
     ewald contribution        =     777.43161692 Ry

     convergence has been achieved in  27 iterations

     Forces acting on atoms (cartesian axes, Ry/au):

     atom    1 type  1   force =    -0.00000000   -0.00000000    0.00000000
     atom    2 type  2   force =     0.00000000    0.00000000   -0.02038403
     atom    3 type  2   force =    -0.00000000   -0.00000000    0.02038403

     Total force =     0.028827     Total SCF correction =     0.000005


     Computing stress (Cartesian axis) and pressure

          total   stress  (Ry/bohr**3)                   (kbar)     P=       -8.46
  -0.00002754  -0.00000000   0.00000000           -4.05       -0.00        0.00
  -0.00000000  -0.00002754   0.00000000           -0.00       -4.05        0.00
   0.00000000   0.00000000  -0.00011747            0.00        0.00      -17.28


     Writing output data file /tmp/x0.000y0.000s0.980/x0.000y0.000s0.980.save/
 
     init_run     :      0.46s CPU      0.63s WALL (       1 calls)
     electrons    :     11.39s CPU     12.34s WALL (       1 calls)
     forces       :      0.10s CPU      0.10s WALL (       1 calls)
     stress       :      0.21s CPU      0.21s WALL (       1 calls)

     Called by init_run:
     wfcinit      :      0.08s CPU      0.23s WALL (       1 calls)
     potinit      :      0.07s CPU      0.08s WALL (       1 calls)
     hinit0       :      0.11s CPU      0.13s WALL (       1 calls)

     Called by electrons:
     c_bands      :     10.49s CPU     11.40s WALL (      27 calls)
     sum_band     :      0.71s CPU      0.74s WALL (      27 calls)
     v_of_rho     :      0.08s CPU      0.08s WALL (      28 calls)
     mix_rho      :      0.07s CPU      0.07s WALL (      27 calls)

     Called by c_bands:
     init_us_2    :      0.16s CPU      0.17s WALL (    1083 calls)
     cegterg      :     10.04s CPU     10.27s WALL (     532 calls)

     Called by *egterg:
     cdiaghg      :      2.81s CPU      3.00s WALL (    3786 calls)
     h_psi        :      5.49s CPU      5.65s WALL (    3824 calls)
     g_psi        :      0.05s CPU      0.05s WALL (    3273 calls)

     Called by h_psi:
     h_psi:calbec :      0.26s CPU      0.28s WALL (    3824 calls)
     vloc_psi     :      5.06s CPU      5.20s WALL (    3824 calls)
     add_vuspsi   :      0.12s CPU      0.13s WALL (    3824 calls)

     General routines
     calbec       :      0.27s CPU      0.29s WALL (    3919 calls)
     fft          :      0.07s CPU      0.08s WALL (     142 calls)
     ffts         :      0.01s CPU      0.01s WALL (      55 calls)
     fftw         :      5.04s CPU      5.18s WALL (   67535 calls)
     interpolate  :      0.02s CPU      0.02s WALL (      28 calls)
 
     Parallel routines
 
     PWSCF        :     12.20s CPU     13.57s WALL

 
   This run was terminated on:  16:56:39  27Sep2025            

=------------------------------------------------------------------------------=
   JOB DONE.
=------------------------------------------------------------------------------=
