MPI startup(): Warning: I_MPI_PMI_LIBRARY will be ignored since the hydra process manager was found
MPI startup(): Warning: I_MPI_PMI_LIBRARY will be ignored since the hydra process manager was found
MPI startup(): Warning: I_MPI_PMI_LIBRARY will be ignored since the hydra process manager was found
MPI startup(): Warning: I_MPI_PMI_LIBRARY will be ignored since the hydra process manager was found
MPI startup(): Warning: I_MPI_PMI_LIBRARY will be ignored since the hydra process manager was found
MPI startup(): Warning: I_MPI_PMI_LIBRARY will be ignored since the hydra process manager was found
MPI startup(): Warning: I_MPI_PMI_LIBRARY will be ignored since the hydra process manager was found
MPI startup(): Warning: I_MPI_PMI_LIBRARY will be ignored since the hydra process manager was found
MPI startup(): Warning: I_MPI_PMI_LIBRARY will be ignored since the hydra process manager was found
MPI startup(): Warning: I_MPI_PMI_LIBRARY will be ignored since the hydra process manager was found
MPI startup(): Warning: I_MPI_PMI_LIBRARY will be ignored since the hydra process manager was found
MPI startup(): Warning: I_MPI_PMI_LIBRARY will be ignored since the hydra process manager was found

     Program PWSCF v.6.8 starts on 27Sep2025 at 16:56:28 

     This program is part of the open-source Quantum ESPRESSO suite
     for quantum simulation of materials; please cite
         "P. Giannozzi et al., J. Phys.:Condens. Matter 21 395502 (2009);
         "P. Giannozzi et al., J. Phys.:Condens. Matter 29 465901 (2017);
         "P. Giannozzi et al., J. Chem. Phys. 152 154105 (2020);
          URL http://www.quantum-espresso.org", 
     in publications or presentations arising from this work. More details at
     http://www.quantum-espresso.org/quote

     Parallel version (MPI & OpenMP), running on      12 processor cores
     Number of MPI processes:                12
     Threads/MPI process:                     1

     MPI processes distributed on     1 nodes
     R & G space division:  proc/nbgrp/npool/nimage =      12
     169773 MiB available memory on the printing compute node when the environment starts
 
     Reading input from x0.000y0.000s1.000.scf.in
Warning: card &CELL ignored
Warning: card / ignored
Warning: card &FCP ignored
Warning: card / ignored
Warning: card &RISM ignored
Warning: card / ignored

     Current dimensions of program PWSCF are:
     Max number of different atomic species (ntypx) = 10
     Max number of k-points (npk) =  40000
     Max angular momentum in pseudopotentials (lmaxx) =  4

     IMPORTANT: XC functional enforced from input :
     Exchange-correlation= LDA
                           (   1   1   0   0   0   0   0)
     Any further DFT definition will be discarded
     Please, verify this is what you really want

     Message from routine setup:
     no reason to have ecutrho>4*ecutwfc
     Message from routine setup:
     using ibrav=0 with symmetry is DISCOURAGED, use correct ibrav instead

     Subspace diagonalization in iterative solution of the eigenvalue problem:
     one sub-group per band group will be used
     scalapack distributed-memory algorithm (size of sub-group:  3*  3 procs)

 
     Parallelization info
     --------------------
     sticks:   dense  smooth     PW     G-vecs:    dense   smooth      PW
     Min          94      41     12                15268     4509     742
     Max          95      42     13                15281     4540     763
     Sum        1135     499    151               183287    54301    9047
 
     Using Slab Decomposition
 


     bravais-lattice index     =            0
     lattice parameter (alat)  =       6.0212  a.u.
     unit-cell volume          =    1135.6588 (a.u.)^3
     number of atoms/cell      =            3
     number of atomic types    =            2
     number of electrons       =        26.00
     number of Kohn-Sham states=           13
     kinetic-energy cutoff     =      50.0000  Ry
     charge density cutoff     =     450.0000  Ry
     scf convergence threshold =      1.0E-11
     mixing beta               =       0.5000
     number of iterations used =            8  plain     mixing
     Exchange-correlation= LDA
                           (   1   1   0   0   0   0   0)

     celldm(1)=   6.021245  celldm(2)=   0.000000  celldm(3)=   0.000000
     celldm(4)=   0.000000  celldm(5)=   0.000000  celldm(6)=   0.000000

     crystal axes: (cart. coord. in units of alat)
               a(1) = (   1.000000   0.000000   0.000000 )  
               a(2) = (  -0.500000   0.866025   0.000000 )  
               a(3) = (   0.000000   0.000000   6.007010 )  

     reciprocal axes: (cart. coord. in units 2 pi/alat)
               b(1) = (  1.000000  0.577350  0.000000 )  
               b(2) = (  0.000000  1.154701  0.000000 )  
               b(3) = (  0.000000  0.000000  0.166472 )  


     PseudoPot. # 1 for Mo read from file:
     /home/theory/phrrpq/sg15_oncv_upf_2020-02-06/Mo_ONCV_PBE-1.2.upf
     MD5 check sum: 2665c9f4159700498d9a5f7573bd8e9f
     Pseudo is Norm-conserving, Zval = 14.0
     Generated using ONCVPSP code by D. R. Hamann
     Using radial grid of  602 points,  6 beta functions with: 
                l(1) =   0
                l(2) =   0
                l(3) =   1
                l(4) =   1
                l(5) =   2
                l(6) =   2

     PseudoPot. # 2 for S  read from file:
     /home/theory/phrrpq/sg15_oncv_upf_2020-02-06/S_ONCV_PBE-1.2.upf
     MD5 check sum: f9d020296ee6110346977bfd66d424f6
     Pseudo is Norm-conserving, Zval =  6.0
     Generated using ONCVPSP code by D. R. Hamann
     Using radial grid of  602 points,  4 beta functions with: 
                l(1) =   0
                l(2) =   0
                l(3) =   1
                l(4) =   1

     atomic species   valence    mass     pseudopotential
        Mo            14.00    95.95000     Mo( 1.00)
        S              6.00    32.06000     S ( 1.00)

     12 Sym. Ops. (no inversion) found



   Cartesian axes

     site n.     atom                  positions (alat units)
         1           Mo  tau(   1) = (   0.0000000   0.0000000   3.0035051  )
         2           S   tau(   2) = (   0.5000000   0.2886751   3.4964249  )
         3           S   tau(   3) = (   0.5000000   0.2886751   2.5105854  )

     number of k points=    19
                       cart. coord. in units 2pi/alat
        k(    1) = (   0.0000000   0.0000000   0.0000000), wk =   0.0138889
        k(    2) = (   0.0000000   0.0962250   0.0000000), wk =   0.0833333
        k(    3) = (   0.0000000   0.1924501   0.0000000), wk =   0.0833333
        k(    4) = (   0.0000000   0.2886751   0.0000000), wk =   0.0833333
        k(    5) = (   0.0000000   0.3849002   0.0000000), wk =   0.0833333
        k(    6) = (   0.0000000   0.4811252   0.0000000), wk =   0.0833333
        k(    7) = (   0.0000000  -0.5773503   0.0000000), wk =   0.0416667
        k(    8) = (   0.0833333   0.1443376   0.0000000), wk =   0.0833333
        k(    9) = (   0.0833333   0.2405626   0.0000000), wk =   0.1666667
        k(   10) = (   0.0833333   0.3367877   0.0000000), wk =   0.1666667
        k(   11) = (   0.0833333   0.4330127   0.0000000), wk =   0.1666667
        k(   12) = (   0.0833333   0.5292377   0.0000000), wk =   0.1666667
        k(   13) = (   0.1666667   0.2886751   0.0000000), wk =   0.0833333
        k(   14) = (   0.1666667   0.3849002   0.0000000), wk =   0.1666667
        k(   15) = (   0.1666667   0.4811252   0.0000000), wk =   0.1666667
        k(   16) = (   0.1666667   0.5773503   0.0000000), wk =   0.0833333
        k(   17) = (   0.2500000   0.4330127   0.0000000), wk =   0.0833333
        k(   18) = (   0.2500000   0.5292377   0.0000000), wk =   0.1666667
        k(   19) = (   0.3333333   0.5773503   0.0000000), wk =   0.0277778

     Dense  grid:   183287 G-vectors     FFT dimensions: (  45,  45, 250)

     Smooth grid:    54301 G-vectors     FFT dimensions: (  27,  27, 180)

     Estimated max dynamical RAM per process >      16.05 MB

     Estimated total dynamical RAM >     192.61 MB
 ----2D----2D----2D----2D----2D----2D----2D----2D----2D----2D----2D----2D
  The code is running with the 2D cutoff
  Please refer to:
  Sohier, T., Calandra, M., & Mauri, F. (2017), 
  Density functional perturbation theory for gated two-dimensional heterostructu
 res:
  Theoretical developments and application to flexural phonons in graphene.
  Physical Review B, 96(7), 75448. https://doi.org/10.1103/PhysRevB.96.075448
 ----2D----2D----2D----2D----2D----2D----2D----2D----2D----2D----2D----2D
     Cannot read rho : file not found

     Initial potential from superposition of free atoms

     starting charge   25.88865, renormalised to   26.00000

     negative rho (up, down):  9.312E-05 0.000E+00
     Starting wfcs are    0 atomic +   13 random wfcs

     total cpu time spent up to now is        0.6 secs

     Self-consistent Calculation

     iteration #  1     ecut=    50.00 Ry     beta= 0.50
     Davidson diagonalization with overlap
     ethr =  1.00E-05,  avg # of iterations = 28.2

     negative rho (up, down):  1.734E-05 0.000E+00

     total cpu time spent up to now is        2.4 secs

     total energy              =    -177.99858105 Ry
     estimated scf accuracy    <       0.09402477 Ry

     iteration #  2     ecut=    50.00 Ry     beta= 0.50
     Davidson diagonalization with overlap
     ethr =  3.62E-04,  avg # of iterations =  2.0

     negative rho (up, down):  5.527E-06 0.000E+00

     total cpu time spent up to now is        2.6 secs

     total energy              =    -178.01628614 Ry
     estimated scf accuracy    <       0.00578557 Ry

     iteration #  3     ecut=    50.00 Ry     beta= 0.50
     Davidson diagonalization with overlap
     ethr =  2.23E-05,  avg # of iterations =  4.6

     negative rho (up, down):  8.227E-06 0.000E+00

     total cpu time spent up to now is        2.9 secs

     total energy              =    -178.01621438 Ry
     estimated scf accuracy    <       0.00455000 Ry

     iteration #  4     ecut=    50.00 Ry     beta= 0.50
     Davidson diagonalization with overlap
     ethr =  1.75E-05,  avg # of iterations =  3.8

     negative rho (up, down):  3.894E-06 0.000E+00

     total cpu time spent up to now is        3.2 secs

     total energy              =    -178.01695467 Ry
     estimated scf accuracy    <       0.00073316 Ry

     iteration #  5     ecut=    50.00 Ry     beta= 0.50
     Davidson diagonalization with overlap
     ethr =  2.82E-06,  avg # of iterations =  4.7

     negative rho (up, down):  1.541E-06 0.000E+00

     total cpu time spent up to now is        3.5 secs

     total energy              =    -178.01671409 Ry
     estimated scf accuracy    <       0.00133001 Ry

     iteration #  6     ecut=    50.00 Ry     beta= 0.50
     Davidson diagonalization with overlap
     ethr =  2.82E-06,  avg # of iterations =  4.1

     negative rho (up, down):  1.221E-06 0.000E+00

     total cpu time spent up to now is        3.8 secs

     total energy              =    -178.01697291 Ry
     estimated scf accuracy    <       0.00001854 Ry

     iteration #  7     ecut=    50.00 Ry     beta= 0.50
     Davidson diagonalization with overlap
     ethr =  7.13E-08,  avg # of iterations =  5.5

     negative rho (up, down):  5.174E-07 0.000E+00

     total cpu time spent up to now is        4.2 secs

     total energy              =    -178.01698205 Ry
     estimated scf accuracy    <       0.00001208 Ry

     iteration #  8     ecut=    50.00 Ry     beta= 0.50
     Davidson diagonalization with overlap
     ethr =  4.65E-08,  avg # of iterations =  3.2

     negative rho (up, down):  2.885E-07 0.000E+00

     total cpu time spent up to now is        4.4 secs

     total energy              =    -178.01698283 Ry
     estimated scf accuracy    <       0.00000136 Ry

     iteration #  9     ecut=    50.00 Ry     beta= 0.50
     Davidson diagonalization with overlap
     ethr =  5.22E-09,  avg # of iterations =  5.8

     negative rho (up, down):  9.050E-08 0.000E+00

     total cpu time spent up to now is        4.8 secs

     total energy              =    -178.01698332 Ry
     estimated scf accuracy    <       0.00000517 Ry

     iteration # 10     ecut=    50.00 Ry     beta= 0.50
     Davidson diagonalization with overlap
     ethr =  5.22E-09,  avg # of iterations =  3.9

     negative rho (up, down):  2.073E-08 0.000E+00

     total cpu time spent up to now is        5.1 secs

     total energy              =    -178.01698366 Ry
     estimated scf accuracy    <       0.00000029 Ry

     iteration # 11     ecut=    50.00 Ry     beta= 0.50
     Davidson diagonalization with overlap
     ethr =  1.10E-09,  avg # of iterations =  6.2

     total cpu time spent up to now is        5.5 secs

     total energy              =    -178.01698370 Ry
     estimated scf accuracy    <       0.00000133 Ry

     iteration # 12     ecut=    50.00 Ry     beta= 0.50
     Davidson diagonalization with overlap
     ethr =  1.10E-09,  avg # of iterations =  5.0

     total cpu time spent up to now is        5.8 secs

     total energy              =    -178.01698387 Ry
     estimated scf accuracy    <       0.00000001 Ry

     iteration # 13     ecut=    50.00 Ry     beta= 0.50
     Davidson diagonalization with overlap
     ethr =  5.18E-11,  avg # of iterations =  5.7

     total cpu time spent up to now is        6.2 secs

     total energy              =    -178.01698388 Ry
     estimated scf accuracy    <       0.00000002 Ry

     iteration # 14     ecut=    50.00 Ry     beta= 0.50
     Davidson diagonalization with overlap
     ethr =  5.18E-11,  avg # of iterations =  1.0

     total cpu time spent up to now is        6.4 secs

     total energy              =    -178.01698388 Ry
     estimated scf accuracy    <       0.00000002 Ry

     iteration # 15     ecut=    50.00 Ry     beta= 0.50
     Davidson diagonalization with overlap
     ethr =  5.18E-11,  avg # of iterations =  2.0

     total cpu time spent up to now is        6.6 secs

     total energy              =    -178.01698388 Ry
     estimated scf accuracy    <          5.0E-09 Ry

     iteration # 16     ecut=    50.00 Ry     beta= 0.50
     Davidson diagonalization with overlap
     ethr =  1.91E-11,  avg # of iterations =  1.6

     total cpu time spent up to now is        6.8 secs

     total energy              =    -178.01698388 Ry
     estimated scf accuracy    <          3.5E-09 Ry

     iteration # 17     ecut=    50.00 Ry     beta= 0.50
     Davidson diagonalization with overlap
     ethr =  1.35E-11,  avg # of iterations =  3.5

     total cpu time spent up to now is        7.1 secs

     total energy              =    -178.01698388 Ry
     estimated scf accuracy    <          2.9E-10 Ry

     iteration # 18     ecut=    50.00 Ry     beta= 0.50
     Davidson diagonalization with overlap
     ethr =  1.11E-12,  avg # of iterations =  5.1

     total cpu time spent up to now is        7.4 secs

     total energy              =    -178.01698388 Ry
     estimated scf accuracy    <          1.1E-10 Ry

     iteration # 19     ecut=    50.00 Ry     beta= 0.50
     Davidson diagonalization with overlap
     ethr =  4.19E-13,  avg # of iterations =  1.2

     total cpu time spent up to now is        7.6 secs

     total energy              =    -178.01698388 Ry
     estimated scf accuracy    <          5.5E-11 Ry

     iteration # 20     ecut=    50.00 Ry     beta= 0.50
     Davidson diagonalization with overlap
     ethr =  2.11E-13,  avg # of iterations =  4.1

     total cpu time spent up to now is        7.9 secs

     End of self-consistent calculation

          k = 0.0000 0.0000 0.0000 (  6777 PWs)   bands (ev):

   -66.8579 -40.9712 -40.7518 -40.7518 -20.1748 -18.8626 -11.7600  -8.7118
    -8.7118  -7.9236  -7.5916  -7.5916  -6.1665

          k = 0.0000 0.0962 0.0000 (  6773 PWs)   bands (ev):

   -66.8554 -40.9661 -40.7778 -40.7577 -20.0712 -18.8198 -11.6404  -8.9459
    -8.6029  -8.3942  -7.7567  -7.2768  -6.2132

          k = 0.0000 0.1925 0.0000 (  6772 PWs)   bands (ev):

   -66.8486 -40.9522 -40.8482 -40.7738 -19.7763 -18.6980 -11.3382  -9.4830
    -9.0398  -8.2993  -8.1454  -7.1874  -6.4370

          k = 0.0000 0.2887 0.0000 (  6748 PWs)   bands (ev):

   -66.8392 -40.9431 -40.9332 -40.7957 -19.3393 -18.5190 -11.1189  -9.9391
    -9.7008  -8.5809  -7.8731  -7.4352  -6.8670

          k = 0.0000 0.3849 0.0000 (  6790 PWs)   bands (ev):

   -66.8298 -41.0366 -40.9142 -40.8175 -18.8479 -18.3219 -11.3751 -10.3148
   -10.0177  -8.9473  -7.7354  -7.4465  -7.1199

          k = 0.0000 0.4811 0.0000 (  6804 PWs)   bands (ev):

   -66.8229 -41.1041 -40.9002 -40.8334 -18.4379 -18.1631 -11.7645 -10.7649
   -10.1040  -9.1851  -7.9241  -7.1509  -6.9435

          k = 0.0000-0.5774 0.0000 (  6782 PWs)   bands (ev):

   -66.8203 -41.1287 -40.8950 -40.8392 -18.2730 -18.1013 -11.9306 -10.9317
   -10.1772  -9.2670  -7.9842  -7.0506  -6.7707

          k = 0.0833 0.1443 0.0000 (  6757 PWs)   bands (ev):

   -66.8507 -40.9566 -40.8246 -40.7700 -19.8718 -18.7373 -11.4257  -9.3242
    -8.8230  -8.4050  -8.1411  -7.0814  -6.3487

          k = 0.0833 0.2406 0.0000 (  6772 PWs)   bands (ev):

   -66.8426 -40.9402 -40.9039 -40.7924 -19.5048 -18.5859 -11.1319  -9.8065
    -9.3679  -8.6915  -8.0905  -7.1080  -6.6872

          k = 0.0833 0.3368 0.0000 (  6776 PWs)   bands (ev):

   -66.8332 -40.9940 -40.9212 -40.8183 -19.0370 -18.3947 -11.1595 -10.0222
    -9.9795  -9.0568  -7.8495  -7.4038  -6.9816

          k = 0.0833 0.4330 0.0000 (  6784 PWs)   bands (ev):

   -66.8250 -41.0710 -40.9046 -40.8407 -18.5779 -18.2112 -11.5180 -10.6170
    -9.9973  -9.2242  -7.7365  -7.7356  -6.8685

          k = 0.0833 0.5292 0.0000 (  6793 PWs)   bands (ev):

   -66.8203 -41.1150 -40.8951 -40.8535 -18.2804 -18.0957 -11.7901 -10.9640
   -10.1176  -9.2794  -7.9397  -7.6007  -6.6273

          k = 0.1667 0.2887 0.0000 (  6781 PWs)   bands (ev):

   -66.8345 -40.9722 -40.9237 -40.8249 -19.1044 -18.4198 -11.0514  -9.9464
    -9.7953  -9.2995  -8.0724  -7.1400  -6.9168

          k = 0.1667 0.3849 0.0000 (  6761 PWs)   bands (ev):

   -66.8263 -41.0364 -40.9072 -40.8608 -18.6594 -18.2350 -11.2513 -10.4915
    -9.8350  -9.4094  -8.3590  -7.4436  -6.8678

          k = 0.1667 0.4811 0.0000 (  6780 PWs)   bands (ev):

   -66.8203 -41.0817 -40.8951 -40.8881 -18.2949 -18.0845 -11.4601 -11.0233
    -9.9340  -9.3271  -8.4780  -7.8142  -6.6236

          k = 0.1667 0.5774 0.0000 (  6792 PWs)   bands (ev):

   -66.8181 -41.0980 -40.8983 -40.8906 -18.1508 -18.0255 -11.5374 -11.2167
   -10.0556  -9.2556  -8.4683  -7.9915  -6.4472

          k = 0.2500 0.4330 0.0000 (  6781 PWs)   bands (ev):

   -66.8203 -41.0594 -40.9111 -40.8951 -18.3020 -18.0789 -11.2594 -11.0507
    -9.7037  -9.3593  -9.0440  -7.7350  -6.6490

          k = 0.2500 0.5292 0.0000 (  6792 PWs)   bands (ev):

   -66.8169 -41.0641 -40.9487 -40.8881 -18.0803 -17.9792 -11.3967 -11.1393
    -9.9323  -9.3228  -9.1660  -8.0670  -6.3414

          k = 0.3333 0.5774 0.0000 (  6825 PWs)   bands (ev):

   -66.8156 -41.0358 -40.9928 -40.8856 -18.0004 -17.9375 -11.5437 -10.7470
   -10.2145  -9.6356  -9.0140  -8.2499  -6.1503

     highest occupied level (ev):    -6.1503

!    total energy              =    -178.01698388 Ry
     estimated scf accuracy    <          9.0E-13 Ry

     The total energy is the sum of the following terms:
     one-electron contribution =   -1789.20732642 Ry
     hartree contribution      =     889.25597140 Ry
     xc contribution           =     -24.36480258 Ry
     ewald contribution        =     746.29917371 Ry

     convergence has been achieved in  20 iterations

     Forces acting on atoms (cartesian axes, Ry/au):

     atom    1 type  1   force =     0.00000000    0.00000000    0.00000000
     atom    2 type  2   force =     0.00000000    0.00000000   -0.02037405
     atom    3 type  2   force =     0.00000000    0.00000000    0.02037405

     Total force =     0.028813     Total SCF correction =     0.000003


     Computing stress (Cartesian axis) and pressure

          total   stress  (Ry/bohr**3)                   (kbar)     P=      -19.73
  -0.00014561  -0.00000000   0.00000000          -21.42       -0.00        0.00
   0.00000000  -0.00014561   0.00000000            0.00      -21.42        0.00
   0.00000000   0.00000000  -0.00011120            0.00        0.00      -16.36


     Writing output data file /tmp/x0.000y0.000s1.000/x0.000y0.000s1.000.save/
 
     init_run     :      0.48s CPU      0.52s WALL (       1 calls)
     electrons    :      7.15s CPU      7.34s WALL (       1 calls)
     forces       :      0.10s CPU      0.11s WALL (       1 calls)
     stress       :      0.21s CPU      0.22s WALL (       1 calls)

     Called by init_run:
     wfcinit      :      0.08s CPU      0.10s WALL (       1 calls)
     potinit      :      0.08s CPU      0.08s WALL (       1 calls)
     hinit0       :      0.11s CPU      0.12s WALL (       1 calls)

     Called by electrons:
     c_bands      :      6.49s CPU      6.65s WALL (      20 calls)
     sum_band     :      0.50s CPU      0.52s WALL (      20 calls)
     v_of_rho     :      0.07s CPU      0.07s WALL (      21 calls)
     mix_rho      :      0.06s CPU      0.06s WALL (      20 calls)

     Called by c_bands:
     init_us_2    :      0.13s CPU      0.14s WALL (     817 calls)
     cegterg      :      6.15s CPU      6.29s WALL (     399 calls)

     Called by *egterg:
     cdiaghg      :      1.81s CPU      1.85s WALL (    2303 calls)
     h_psi        :      3.31s CPU      3.41s WALL (    2341 calls)
     g_psi        :      0.03s CPU      0.03s WALL (    1923 calls)

     Called by h_psi:
     h_psi:calbec :      0.15s CPU      0.16s WALL (    2341 calls)
     vloc_psi     :      3.05s CPU      3.13s WALL (    2341 calls)
     add_vuspsi   :      0.08s CPU      0.09s WALL (    2341 calls)

     General routines
     calbec       :      0.16s CPU      0.17s WALL (    2436 calls)
     fft          :      0.06s CPU      0.08s WALL (     107 calls)
     ffts         :      0.01s CPU      0.01s WALL (      41 calls)
     fftw         :      3.03s CPU      3.11s WALL (   44246 calls)
     interpolate  :      0.02s CPU      0.02s WALL (      21 calls)
 
     Parallel routines
 
     PWSCF        :      7.99s CPU      8.30s WALL

 
   This run was terminated on:  16:56:36  27Sep2025            

=------------------------------------------------------------------------------=
   JOB DONE.
=------------------------------------------------------------------------------=
