MPI startup(): Warning: I_MPI_PMI_LIBRARY will be ignored since the hydra process manager was found
MPI startup(): Warning: I_MPI_PMI_LIBRARY will be ignored since the hydra process manager was found
MPI startup(): Warning: I_MPI_PMI_LIBRARY will be ignored since the hydra process manager was found
MPI startup(): Warning: I_MPI_PMI_LIBRARY will be ignored since the hydra process manager was found
MPI startup(): Warning: I_MPI_PMI_LIBRARY will be ignored since the hydra process manager was found
MPI startup(): Warning: I_MPI_PMI_LIBRARY will be ignored since the hydra process manager was found
MPI startup(): Warning: I_MPI_PMI_LIBRARY will be ignored since the hydra process manager was found
MPI startup(): Warning: I_MPI_PMI_LIBRARY will be ignored since the hydra process manager was found
MPI startup(): Warning: I_MPI_PMI_LIBRARY will be ignored since the hydra process manager was found
MPI startup(): Warning: I_MPI_PMI_LIBRARY will be ignored since the hydra process manager was found
MPI startup(): Warning: I_MPI_PMI_LIBRARY will be ignored since the hydra process manager was found
MPI startup(): Warning: I_MPI_PMI_LIBRARY will be ignored since the hydra process manager was found

     Program PWSCF v.6.8 starts on 27Sep2025 at 16:56:20 

     This program is part of the open-source Quantum ESPRESSO suite
     for quantum simulation of materials; please cite
         "P. Giannozzi et al., J. Phys.:Condens. Matter 21 395502 (2009);
         "P. Giannozzi et al., J. Phys.:Condens. Matter 29 465901 (2017);
         "P. Giannozzi et al., J. Chem. Phys. 152 154105 (2020);
          URL http://www.quantum-espresso.org", 
     in publications or presentations arising from this work. More details at
     http://www.quantum-espresso.org/quote

     Parallel version (MPI & OpenMP), running on      12 processor cores
     Number of MPI processes:                12
     Threads/MPI process:                     1

     MPI processes distributed on     1 nodes
     R & G space division:  proc/nbgrp/npool/nimage =      12
     157469 MiB available memory on the printing compute node when the environment starts
 
     Reading input from x0.000y0.000s1.010.scf.in
Warning: card &CELL ignored
Warning: card / ignored
Warning: card &FCP ignored
Warning: card / ignored
Warning: card &RISM ignored
Warning: card / ignored

     Current dimensions of program PWSCF are:
     Max number of different atomic species (ntypx) = 10
     Max number of k-points (npk) =  40000
     Max angular momentum in pseudopotentials (lmaxx) =  4

     IMPORTANT: XC functional enforced from input :
     Exchange-correlation= LDA
                           (   1   1   0   0   0   0   0)
     Any further DFT definition will be discarded
     Please, verify this is what you really want

     Message from routine setup:
     no reason to have ecutrho>4*ecutwfc
     Message from routine setup:
     using ibrav=0 with symmetry is DISCOURAGED, use correct ibrav instead

     Subspace diagonalization in iterative solution of the eigenvalue problem:
     one sub-group per band group will be used
     scalapack distributed-memory algorithm (size of sub-group:  3*  3 procs)

 
     Parallelization info
     --------------------
     sticks:   dense  smooth     PW     G-vecs:    dense   smooth      PW
     Min          96      42     12                15571     4612     748
     Max          98      43     13                15586     4629     773
     Sum        1159     511    151               186923    55417    9155
 
     Using Slab Decomposition
 


     bravais-lattice index     =            0
     lattice parameter (alat)  =       6.0815  a.u.
     unit-cell volume          =    1158.4855 (a.u.)^3
     number of atoms/cell      =            3
     number of atomic types    =            2
     number of electrons       =        26.00
     number of Kohn-Sham states=           13
     kinetic-energy cutoff     =      50.0000  Ry
     charge density cutoff     =     450.0000  Ry
     scf convergence threshold =      1.0E-11
     mixing beta               =       0.5000
     number of iterations used =            8  plain     mixing
     Exchange-correlation= LDA
                           (   1   1   0   0   0   0   0)

     celldm(1)=   6.081457  celldm(2)=   0.000000  celldm(3)=   0.000000
     celldm(4)=   0.000000  celldm(5)=   0.000000  celldm(6)=   0.000000

     crystal axes: (cart. coord. in units of alat)
               a(1) = (   1.000000   0.000000   0.000000 )  
               a(2) = (  -0.500000   0.866025   0.000000 )  
               a(3) = (   0.000000   0.000000   5.947535 )  

     reciprocal axes: (cart. coord. in units 2 pi/alat)
               b(1) = (  1.000000  0.577350  0.000000 )  
               b(2) = (  0.000000  1.154701  0.000000 )  
               b(3) = (  0.000000  0.000000  0.168137 )  


     PseudoPot. # 1 for Mo read from file:
     /home/theory/phrrpq/sg15_oncv_upf_2020-02-06/Mo_ONCV_PBE-1.2.upf
     MD5 check sum: 2665c9f4159700498d9a5f7573bd8e9f
     Pseudo is Norm-conserving, Zval = 14.0
     Generated using ONCVPSP code by D. R. Hamann
     Using radial grid of  602 points,  6 beta functions with: 
                l(1) =   0
                l(2) =   0
                l(3) =   1
                l(4) =   1
                l(5) =   2
                l(6) =   2

     PseudoPot. # 2 for S  read from file:
     /home/theory/phrrpq/sg15_oncv_upf_2020-02-06/S_ONCV_PBE-1.2.upf
     MD5 check sum: f9d020296ee6110346977bfd66d424f6
     Pseudo is Norm-conserving, Zval =  6.0
     Generated using ONCVPSP code by D. R. Hamann
     Using radial grid of  602 points,  4 beta functions with: 
                l(1) =   0
                l(2) =   0
                l(3) =   1
                l(4) =   1

     atomic species   valence    mass     pseudopotential
        Mo            14.00    95.95000     Mo( 1.00)
        S              6.00    32.06000     S ( 1.00)

     12 Sym. Ops. (no inversion) found



   Cartesian axes

     site n.     atom                  positions (alat units)
         1           Mo  tau(   1) = (   0.0000000   0.0000000   2.9737675  )
         2           S   tau(   2) = (   0.5000000   0.2886751   3.4586053  )
         3           S   tau(   3) = (   0.5000000   0.2886751   2.4889296  )

     number of k points=    19
                       cart. coord. in units 2pi/alat
        k(    1) = (   0.0000000   0.0000000   0.0000000), wk =   0.0138889
        k(    2) = (   0.0000000   0.0962250   0.0000000), wk =   0.0833333
        k(    3) = (   0.0000000   0.1924501   0.0000000), wk =   0.0833333
        k(    4) = (   0.0000000   0.2886751   0.0000000), wk =   0.0833333
        k(    5) = (   0.0000000   0.3849002   0.0000000), wk =   0.0833333
        k(    6) = (   0.0000000   0.4811252   0.0000000), wk =   0.0833333
        k(    7) = (   0.0000000  -0.5773503   0.0000000), wk =   0.0416667
        k(    8) = (   0.0833333   0.1443376   0.0000000), wk =   0.0833333
        k(    9) = (   0.0833333   0.2405626   0.0000000), wk =   0.1666667
        k(   10) = (   0.0833333   0.3367877   0.0000000), wk =   0.1666667
        k(   11) = (   0.0833333   0.4330127   0.0000000), wk =   0.1666667
        k(   12) = (   0.0833333   0.5292377   0.0000000), wk =   0.1666667
        k(   13) = (   0.1666667   0.2886751   0.0000000), wk =   0.0833333
        k(   14) = (   0.1666667   0.3849002   0.0000000), wk =   0.1666667
        k(   15) = (   0.1666667   0.4811252   0.0000000), wk =   0.1666667
        k(   16) = (   0.1666667   0.5773503   0.0000000), wk =   0.0833333
        k(   17) = (   0.2500000   0.4330127   0.0000000), wk =   0.0833333
        k(   18) = (   0.2500000   0.5292377   0.0000000), wk =   0.1666667
        k(   19) = (   0.3333333   0.5773503   0.0000000), wk =   0.0277778

     Dense  grid:   186923 G-vectors     FFT dimensions: (  45,  45, 250)

     Smooth grid:    55417 G-vectors     FFT dimensions: (  27,  27, 180)

     Estimated max dynamical RAM per process >      16.24 MB

     Estimated total dynamical RAM >     194.91 MB
 ----2D----2D----2D----2D----2D----2D----2D----2D----2D----2D----2D----2D
  The code is running with the 2D cutoff
  Please refer to:
  Sohier, T., Calandra, M., & Mauri, F. (2017), 
  Density functional perturbation theory for gated two-dimensional heterostructu
 res:
  Theoretical developments and application to flexural phonons in graphene.
  Physical Review B, 96(7), 75448. https://doi.org/10.1103/PhysRevB.96.075448
 ----2D----2D----2D----2D----2D----2D----2D----2D----2D----2D----2D----2D
     Cannot read rho : file not found

     Initial potential from superposition of free atoms

     starting charge   25.88865, renormalised to   26.00000

     negative rho (up, down):  9.658E-05 0.000E+00
     Starting wfcs are    0 atomic +   13 random wfcs

     total cpu time spent up to now is        0.7 secs

     Self-consistent Calculation

     iteration #  1     ecut=    50.00 Ry     beta= 0.50
     Davidson diagonalization with overlap
     ethr =  1.00E-05,  avg # of iterations = 28.2

     negative rho (up, down):  1.794E-05 0.000E+00

     total cpu time spent up to now is        2.6 secs

     total energy              =    -177.99557882 Ry
     estimated scf accuracy    <       0.09280368 Ry

     iteration #  2     ecut=    50.00 Ry     beta= 0.50
     Davidson diagonalization with overlap
     ethr =  3.57E-04,  avg # of iterations =  2.1

     negative rho (up, down):  5.467E-06 0.000E+00

     total cpu time spent up to now is        2.8 secs

     total energy              =    -178.01347289 Ry
     estimated scf accuracy    <       0.00621857 Ry

     iteration #  3     ecut=    50.00 Ry     beta= 0.50
     Davidson diagonalization with overlap
     ethr =  2.39E-05,  avg # of iterations =  2.2

     negative rho (up, down):  1.196E-05 0.000E+00

     total cpu time spent up to now is        3.1 secs

     total energy              =    -178.01365940 Ry
     estimated scf accuracy    <       0.00127948 Ry

     iteration #  4     ecut=    50.00 Ry     beta= 0.50
     Davidson diagonalization with overlap
     ethr =  4.92E-06,  avg # of iterations =  3.5

     negative rho (up, down):  6.766E-06 0.000E+00

     total cpu time spent up to now is        3.3 secs

     total energy              =    -178.01387878 Ry
     estimated scf accuracy    <       0.00012017 Ry

     iteration #  5     ecut=    50.00 Ry     beta= 0.50
     Davidson diagonalization with overlap
     ethr =  4.62E-07,  avg # of iterations =  5.9

     negative rho (up, down):  1.528E-06 0.000E+00

     total cpu time spent up to now is        3.7 secs

     total energy              =    -178.01393049 Ry
     estimated scf accuracy    <       0.00020038 Ry

     iteration #  6     ecut=    50.00 Ry     beta= 0.50
     Davidson diagonalization with overlap
     ethr =  4.62E-07,  avg # of iterations =  3.1

     negative rho (up, down):  1.075E-06 0.000E+00

     total cpu time spent up to now is        4.0 secs

     total energy              =    -178.01394431 Ry
     estimated scf accuracy    <       0.00001636 Ry

     iteration #  7     ecut=    50.00 Ry     beta= 0.50
     Davidson diagonalization with overlap
     ethr =  6.29E-08,  avg # of iterations =  6.3

     negative rho (up, down):  6.456E-07 0.000E+00

     total cpu time spent up to now is        4.4 secs

     total energy              =    -178.01394703 Ry
     estimated scf accuracy    <       0.00005021 Ry

     iteration #  8     ecut=    50.00 Ry     beta= 0.50
     Davidson diagonalization with overlap
     ethr =  6.29E-08,  avg # of iterations =  4.7

     negative rho (up, down):  2.005E-07 0.000E+00

     total cpu time spent up to now is        4.7 secs

     total energy              =    -178.01395580 Ry
     estimated scf accuracy    <       0.00000014 Ry

     iteration #  9     ecut=    50.00 Ry     beta= 0.50
     Davidson diagonalization with overlap
     ethr =  5.41E-10,  avg # of iterations =  6.8

     negative rho (up, down):  1.048E-07 0.000E+00

     total cpu time spent up to now is        5.2 secs

     total energy              =    -178.01395566 Ry
     estimated scf accuracy    <       0.00000140 Ry

     iteration # 10     ecut=    50.00 Ry     beta= 0.50
     Davidson diagonalization with overlap
     ethr =  5.41E-10,  avg # of iterations =  6.8

     negative rho (up, down):  2.704E-08 0.000E+00

     total cpu time spent up to now is        5.7 secs

     total energy              =    -178.01395598 Ry
     estimated scf accuracy    <       0.00000030 Ry

     iteration # 11     ecut=    50.00 Ry     beta= 0.50
     Davidson diagonalization with overlap
     ethr =  5.41E-10,  avg # of iterations =  2.8

     total cpu time spent up to now is        5.9 secs

     total energy              =    -178.01395597 Ry
     estimated scf accuracy    <       0.00000007 Ry

     iteration # 12     ecut=    50.00 Ry     beta= 0.50
     Davidson diagonalization with overlap
     ethr =  2.70E-10,  avg # of iterations =  4.5

     total cpu time spent up to now is        6.3 secs

     total energy              =    -178.01395600 Ry
     estimated scf accuracy    <       0.00000002 Ry

     iteration # 13     ecut=    50.00 Ry     beta= 0.50
     Davidson diagonalization with overlap
     ethr =  5.83E-11,  avg # of iterations =  1.4

     total cpu time spent up to now is        6.5 secs

     total energy              =    -178.01395600 Ry
     estimated scf accuracy    <       0.00000001 Ry

     iteration # 14     ecut=    50.00 Ry     beta= 0.50
     Davidson diagonalization with overlap
     ethr =  4.52E-11,  avg # of iterations =  2.6

     total cpu time spent up to now is        6.7 secs

     total energy              =    -178.01395600 Ry
     estimated scf accuracy    <          9.3E-10 Ry

     iteration # 15     ecut=    50.00 Ry     beta= 0.50
     Davidson diagonalization with overlap
     ethr =  3.58E-12,  avg # of iterations =  3.1

     total cpu time spent up to now is        7.0 secs

     total energy              =    -178.01395600 Ry
     estimated scf accuracy    <          1.0E-09 Ry

     iteration # 16     ecut=    50.00 Ry     beta= 0.50
     Davidson diagonalization with overlap
     ethr =  3.58E-12,  avg # of iterations =  3.2

     total cpu time spent up to now is        7.2 secs

     total energy              =    -178.01395600 Ry
     estimated scf accuracy    <          1.3E-10 Ry

     iteration # 17     ecut=    50.00 Ry     beta= 0.50
     Davidson diagonalization with overlap
     ethr =  5.05E-13,  avg # of iterations =  5.7

     total cpu time spent up to now is        7.6 secs

     total energy              =    -178.01395600 Ry
     estimated scf accuracy    <          2.5E-10 Ry

     iteration # 18     ecut=    50.00 Ry     beta= 0.50
     Davidson diagonalization with overlap
     ethr =  5.05E-13,  avg # of iterations =  1.1

     total cpu time spent up to now is        7.8 secs

     total energy              =    -178.01395600 Ry
     estimated scf accuracy    <          1.8E-10 Ry

     iteration # 19     ecut=    50.00 Ry     beta= 0.50
     Davidson diagonalization with overlap
     ethr =  5.05E-13,  avg # of iterations =  4.2

     total cpu time spent up to now is        8.1 secs

     End of self-consistent calculation

          k = 0.0000 0.0000 0.0000 (  6873 PWs)   bands (ev):

   -66.9202 -41.0109 -40.8284 -40.8284 -20.1234 -18.7972 -11.7073  -8.7999
    -8.7999  -7.8435  -7.6913  -7.6913  -6.0894

          k = 0.0000 0.0962 0.0000 (  6890 PWs)   bands (ev):

   -66.9180 -41.0064 -40.8519 -40.8338 -20.0240 -18.7572 -11.5927  -9.0252
    -8.6952  -8.3782  -7.8501  -7.3025  -6.1470

          k = 0.0000 0.1925 0.0000 (  6870 PWs)   bands (ev):

   -66.9119 -40.9939 -40.9156 -40.8484 -19.7414 -18.6439 -11.3036  -9.5413
    -9.0206  -8.4022  -8.2252  -7.1865  -6.3969

          k = 0.0000 0.2887 0.0000 (  6920 PWs)   bands (ev):

   -66.9037 -41.0016 -40.9768 -40.8682 -19.3241 -18.4778 -11.0985  -9.9713
    -9.6675  -8.6470  -7.9886  -7.4082  -6.8427

          k = 0.0000 0.3849 0.0000 (  6916 PWs)   bands (ev):

   -66.8955 -41.0864 -40.9597 -40.8880 -18.8578 -18.2957 -11.3490 -10.2618
   -10.0264  -9.0024  -7.6897  -7.5683  -7.1056

          k = 0.0000 0.4811 0.0000 (  6938 PWs)   bands (ev):

   -66.8894 -41.1477 -40.9471 -40.9024 -18.4722 -18.1498 -11.7152 -10.6942
   -10.0926  -9.2334  -7.8687  -7.2694  -6.9458

          k = 0.0000-0.5774 0.0000 (  6934 PWs)   bands (ev):

   -66.8872 -41.1700 -40.9425 -40.9077 -18.3184 -18.0933 -11.8691 -10.8537
   -10.1578  -9.3130  -7.9259  -7.1654  -6.7788

          k = 0.0833 0.1443 0.0000 (  6879 PWs)   bands (ev):

   -66.9139 -40.9979 -40.8943 -40.8449 -19.8328 -18.6805 -11.3873  -9.3890
    -8.8048  -8.5041  -8.2160  -7.0987  -6.3018

          k = 0.0833 0.2406 0.0000 (  6899 PWs)   bands (ev):

   -66.9067 -40.9831 -40.9661 -40.8652 -19.4819 -18.5398 -11.1081  -9.8494
    -9.3449  -8.7359  -8.1961  -7.1125  -6.6639

          k = 0.0833 0.3368 0.0000 (  6920 PWs)   bands (ev):

   -66.8985 -41.0478 -40.9660 -40.8887 -19.0368 -18.3628 -11.1417 -10.0006
    -9.9884  -9.0792  -7.9358  -7.3887  -6.9893

          k = 0.0833 0.4330 0.0000 (  6938 PWs)   bands (ev):

   -66.8913 -41.1176 -40.9511 -40.9090 -18.6034 -18.1938 -11.4817 -10.5636
    -9.9990  -9.2435  -7.7969  -7.6998  -6.9118

          k = 0.0833 0.5292 0.0000 (  6935 PWs)   bands (ev):

   -66.8872 -41.1576 -40.9425 -40.9207 -18.3249 -18.0881 -11.7335 -10.8965
   -10.1038  -9.3028  -7.8889  -7.6631  -6.6754

          k = 0.1667 0.2887 0.0000 (  6905 PWs)   bands (ev):

   -66.8996 -41.0280 -40.9683 -40.8946 -19.1008 -18.3859 -11.0371  -9.9746
    -9.7878  -9.2840  -8.1456  -7.1436  -6.9293

          k = 0.1667 0.3849 0.0000 (  6918 PWs)   bands (ev):

   -66.8924 -41.0863 -40.9534 -40.9271 -18.6798 -18.2156 -11.2265 -10.4654
    -9.8563  -9.3809  -8.3881  -7.4317  -6.9122

          k = 0.1667 0.4811 0.0000 (  6932 PWs)   bands (ev):

   -66.8872 -41.1274 -40.9519 -40.9425 -18.3379 -18.0776 -11.4152 -10.9746
    -9.9355  -9.3069  -8.5058  -7.7810  -6.6750

          k = 0.1667 0.5774 0.0000 (  6939 PWs)   bands (ev):

   -66.8853 -41.1423 -40.9611 -40.9385 -18.2037 -18.0237 -11.4820 -11.1593
   -10.0475  -9.2435  -8.4991  -7.9457  -6.5006

          k = 0.2500 0.4330 0.0000 (  6909 PWs)   bands (ev):

   -66.8872 -41.1073 -40.9726 -40.9425 -18.3443 -18.0723 -11.2219 -11.0106
    -9.7257  -9.3188  -9.0440  -7.7109  -6.6979

          k = 0.2500 0.5292 0.0000 (  6926 PWs)   bands (ev):

   -66.8842 -41.1117 -41.0066 -40.9362 -18.1375 -17.9813 -11.3433 -11.0918
    -9.9267  -9.3352  -9.1321  -8.0266  -6.3933

          k = 0.3333 0.5774 0.0000 (  6945 PWs)   bands (ev):

   -66.8831 -41.0865 -41.0461 -40.9339 -18.0632 -17.9433 -11.4868 -10.7015
   -10.1858  -9.6602  -8.9805  -8.2032  -6.2010

     highest occupied level (ev):    -6.0894

!    total energy              =    -178.01395600 Ry
     estimated scf accuracy    <          8.1E-12 Ry

     The total energy is the sum of the following terms:
     one-electron contribution =   -1759.20296089 Ry
     hartree contribution      =     874.21460825 Ry
     xc contribution           =     -24.33190907 Ry
     ewald contribution        =     731.30630571 Ry

     convergence has been achieved in  19 iterations

     Forces acting on atoms (cartesian axes, Ry/au):

     atom    1 type  1   force =     0.00000000    0.00000000    0.00000000
     atom    2 type  2   force =     0.00000000    0.00000000   -0.02039519
     atom    3 type  2   force =     0.00000000   -0.00000000    0.02039519

     Total force =     0.028843     Total SCF correction =     0.000007


     Computing stress (Cartesian axis) and pressure

          total   stress  (Ry/bohr**3)                   (kbar)     P=      -24.72
  -0.00019782  -0.00000000   0.00000000          -29.10       -0.00        0.00
  -0.00000000  -0.00019782  -0.00000000           -0.00      -29.10       -0.00
   0.00000000  -0.00000000  -0.00010840            0.00       -0.00      -15.95


     Writing output data file /tmp/x0.000y0.000s1.010/x0.000y0.000s1.010.save/
 
     init_run     :      0.50s CPU      0.53s WALL (       1 calls)
     electrons    :      7.24s CPU      7.41s WALL (       1 calls)
     forces       :      0.10s CPU      0.11s WALL (       1 calls)
     stress       :      0.21s CPU      0.22s WALL (       1 calls)

     Called by init_run:
     wfcinit      :      0.08s CPU      0.10s WALL (       1 calls)
     potinit      :      0.08s CPU      0.08s WALL (       1 calls)
     hinit0       :      0.11s CPU      0.12s WALL (       1 calls)

     Called by electrons:
     c_bands      :      6.59s CPU      6.73s WALL (      19 calls)
     sum_band     :      0.51s CPU      0.52s WALL (      19 calls)
     v_of_rho     :      0.06s CPU      0.07s WALL (      20 calls)
     mix_rho      :      0.05s CPU      0.05s WALL (      19 calls)

     Called by c_bands:
     init_us_2    :      0.13s CPU      0.13s WALL (     779 calls)
     cegterg      :      6.25s CPU      6.38s WALL (     380 calls)

     Called by *egterg:
     cdiaghg      :      1.72s CPU      1.75s WALL (    2222 calls)
     h_psi        :      3.49s CPU      3.58s WALL (    2260 calls)
     g_psi        :      0.03s CPU      0.03s WALL (    1861 calls)

     Called by h_psi:
     h_psi:calbec :      0.16s CPU      0.18s WALL (    2260 calls)
     vloc_psi     :      3.21s CPU      3.29s WALL (    2260 calls)
     add_vuspsi   :      0.08s CPU      0.09s WALL (    2260 calls)

     General routines
     calbec       :      0.17s CPU      0.18s WALL (    2355 calls)
     fft          :      0.06s CPU      0.06s WALL (     102 calls)
     ffts         :      0.01s CPU      0.01s WALL (      39 calls)
     fftw         :      3.22s CPU      3.29s WALL (   43185 calls)
     interpolate  :      0.02s CPU      0.02s WALL (      20 calls)
 
     Parallel routines
 
     PWSCF        :      8.11s CPU      8.48s WALL

 
   This run was terminated on:  16:56:29  27Sep2025            

=------------------------------------------------------------------------------=
   JOB DONE.
=------------------------------------------------------------------------------=
