27
Lattice="9.60763026765314 0.0 0.0 -4.80381513382657 8.320207811787622 0.0 -0.0 0.0 19.678348314207167" Properties=species:S:1:pos:R:3:raman_tensor:R:27:born_effective_charge:R:9 susceptibility_tensor="_JSON [[-557.6131037036691, 0.6434529134552591, 0.023221460819877006], [0.6435302736777126, -547.994676041605, -0.00794694777097302], [0.017154942274950402, 0.01447512408355101, -34.18417894519129]]" pbc="T T T"
W        0.06129668       1.02234794       9.77413050     -41.41804482       0.65290085       7.15250233     -36.60546539     -13.16589022      -1.23016337       0.02240842      -0.11315448      -0.61375095     -36.60546539     -13.16589022      -1.23016337      -3.87662590     -27.73975158      -1.96206202       0.09487179      -0.02754368      -0.81764380       0.02240842      -0.11315448      -0.61375095       0.09487179      -0.02754368      -0.81764380      -0.02694438      -0.05640993      -0.02309745      -1.20004000      -0.04216000       0.01326000      -0.04977000      -1.66944000       0.01258000       0.17529000      -0.04935000      -0.04992000
S        1.61984646       1.89337570      11.29434584       8.48145304       9.63851178       5.52114031      15.44587336       7.75975682       2.03860639       0.36780403      -0.08342081       0.19789357      15.44587336       7.75975682       2.03860639       5.68908807      -8.95498215      -3.69995138       0.26233358       0.20789202       0.08484396       0.36780403      -0.08342081       0.19789357       0.26233358       0.20789202       0.08484396       0.01728047      -0.00786190      -0.41789358       0.57911000      -0.15076000      -0.00255000      -0.06434000       0.62388000       0.00658000       0.14269000       0.05098000       0.02068000
S        1.64079110       1.86926054       8.16235445      12.42446497      16.27017983      11.37300587      12.79110770       4.31625336       0.07266113      -0.19324055       0.22966564       0.19367665      12.79110770       4.31625336       0.07266113       3.01048544       0.34072995      11.82582385      -0.13397088       0.07976215       0.20738130      -0.19324055       0.22966564       0.19367665      -0.13397088       0.07976215       0.20738130      -0.01568534       0.02418381       0.69262407       0.15452000      -0.06780000       0.00016000       0.03787000       0.48512000       0.00980000      -0.16632000       0.14477000      -0.00064000
W       -1.72187950       3.66214043       9.98184747      68.99835101     -28.46397340     -25.39712661     -14.19766215      25.39536031      -2.27830106      -0.68966633       0.10643167       1.17003313     -14.19766215      25.39536031      -2.27830106      10.70301056      10.29372196     -24.86646700      -0.07450597      -1.01605686       0.04951993      -0.68966633       0.10643167       1.17003313      -0.07450597      -1.01605686       0.04951993       0.08306078       0.02396808      -0.04985769      -1.36114000      -0.01288000       0.01452000      -0.15466000      -0.58071000      -0.00930000      -0.09947000      -0.37496000      -0.03525000
Se       0.01258600       4.51616268      11.64396750      -0.33804480      11.45349771     -14.68221417       9.21430439      -1.91633069      -0.76349227      -0.69516434       0.19029085      -0.01147803       9.21430439      -1.91633069      -0.76349227      -2.68522749      12.23722498     -13.52814669       0.08217029      -0.37123291       0.23535618      -0.69516434       0.19029085      -0.01147803       0.08217029      -0.37123291       0.23535618       0.00626660       0.00249728      -1.10037986       0.39064000      -0.04301000       0.00009000      -0.10385000       0.27274000       0.01288000      -0.16937000       0.52022000       0.02828000
Se      -0.11317788       4.62328776       8.14996060      24.51844023       0.28872253      37.64163889       1.08399926       3.94982779      -0.17776568       0.62482205       0.00562454      -0.20843999       1.08399926       3.94982779      -0.17776568       7.14709822      -4.76773538      31.98960598       0.05517193       0.45348823       0.03747447       0.62482205       0.00562454      -0.20843999       0.05517193       0.45348823       0.03747447      -0.06487047       0.00982754       0.86964843       0.67846000       0.02194000       0.01826000       0.05593000       0.64930000      -0.00880000      -0.31641000      -0.07502000       0.03727000
W       -3.15879668       6.46824100       9.83638794     -32.94830955     -13.86923200      -5.64591077       1.76513790     -19.20419126       3.21356243      -0.26314540      -0.06000922      -0.49251971       1.76513790     -19.20419126       3.21356243      -1.95773452      36.56094685       0.47561021      -0.05822151       0.05258779       0.34330226      -0.26314540      -0.06000922      -0.49251971      -0.05822151       0.05258779       0.34330226      -0.04300236       0.00792510      -0.05168108      -0.78101000      -0.20193000      -0.01200000      -0.02551000      -0.93097000       0.01007000      -0.28216000       0.32251000      -0.03191000
S       -1.62445813       7.58512802      11.46805179       0.31306780      -3.45514551     -21.16690012       0.95959648      -4.13618108       0.48470321       0.09335781       0.08260998      -0.14382512       0.95959648      -4.13618108       0.48470321      -8.01011733     -30.37447723     -14.65105269      -0.18474337      -0.21444351      -0.35697046       0.09335781       0.08260998      -0.14382512      -0.18474337      -0.21444351      -0.35697046      -0.01547218       0.02534519      -0.62097990       0.14743000       0.06024000       0.00765000       0.12253000       0.46489000      -0.00732000       0.15032000      -0.60541000      -0.00086000
S       -1.51704482       7.31198309       8.13650992     -12.84561505      19.25359879      24.09044261      12.49076558      -5.78202275       0.68962533       0.07489636      -0.15439933      -0.06562641      12.49076558      -5.78202275       0.68962533      -8.58412327      18.99398896      26.13891510       0.04400563       0.24049641       0.15384283       0.07489636      -0.15439933      -0.06562641       0.04400563       0.24049641       0.15384283       0.00289826      -0.04238397       0.71088018       0.15971000      -0.12616000      -0.00171000      -0.08050000       0.15232000       0.01429000       0.28644000      -0.12848000      -0.01330000
W        3.19376845       0.97527055       9.79680451      15.78873060     -42.81544327       8.07945793     -23.97714035       4.48621608       0.25817302       0.28824628      -0.01869094       0.61834678     -23.97714035       4.48621608       0.25817302     -10.64101618     -23.09832698       1.80154849      -0.00921374       0.25111448      -0.49538309       0.28824628      -0.01869094       0.61834678      -0.00921374       0.25111448      -0.49538309       0.02921621      -0.02557389       0.02070723      -0.31600000       0.09758000       0.03123000      -0.25691000      -1.03565000       0.01659000      -0.25830000       0.06678000      -0.03641000
Se       4.82764206       1.85830785      11.60861142       0.32778875       2.01718818     -30.30283440       6.53034201       1.62139571      -1.34075032      -0.54284133      -0.06694696       0.04447767       6.53034201       1.62139571      -1.34075032       0.48392711      -3.05005044     -23.03064635      -0.06714123      -0.41482284      -0.05787273      -0.54284133      -0.06694696       0.04447767      -0.06714123      -0.41482284      -0.05787273      -0.00323205      -0.01341753      -1.04831143       0.45506000       0.06276000      -0.00471000       0.03837000       0.43587000      -0.00186000       0.00725000       0.10497000       0.03051000
S        4.83465563       1.77356855       8.33490749      -2.07894837      19.90409320      -4.87295026      13.28688904      -0.84927215       0.96513137      -0.23183991       0.11637008       0.02668627      13.28688904      -0.84927215       0.96513137       2.27186849       8.59108668      -1.29854959       0.06656779      -0.12047906       0.18330268      -0.23183991       0.11637008       0.02668627       0.06656779      -0.12047906       0.18330268       0.00248354       0.01198778       0.50026145       0.40113000       0.05660000       0.00573000       0.05914000       0.61554000       0.00068000       0.06370000      -0.13997000       0.01506000
W        1.71188756       3.70883351       9.83773301     -81.36001150     -35.86920084     -14.17395322     -18.92983903     -26.59531937       1.26576560      -0.37607087      -0.12342942      -1.46215606     -18.92983903     -26.59531937       1.26576560     -11.81159348       3.90501627     -10.63077261      -0.08344106      -0.50499889      -0.04435792      -0.37607087      -0.12342942      -1.46215606      -0.08344106      -0.50499889      -0.04435792      -0.08657717      -0.01389545      -0.08487020      -0.93718000       0.38167000      -0.00926000       0.47915000      -0.71411000      -0.00704000       0.10155000      -0.37995000      -0.03112000
S        3.30444835       4.64788329      11.32009429     -24.60412848      15.70133125       1.33335746      11.23261625      -6.47941933      -1.73485229       0.34421963       0.14249003      -0.07722927      11.23261625      -6.47941933      -1.73485229     -11.50218519     -15.97330445      -2.50238060      -0.07530236       0.41865159       0.08568189       0.34421963       0.14249003      -0.07722927      -0.07530236       0.41865159       0.08568189       0.01433872      -0.00717043      -0.41659464       0.72468000      -0.08392000      -0.00266000      -0.10703000       0.60337000       0.00123000      -0.45064000      -0.03225000       0.02348000
S        3.18723526       4.62030940       8.17782273       5.20358692       9.37118935      11.33721661       5.22391379       0.60962361      -0.89419421       0.02846495      -0.15387715       0.17338269       5.22391379       0.60962361      -0.89419421       1.37070317     -17.24942051      15.00491862       0.08216545       0.00255382      -0.10900300       0.02846495      -0.15387715       0.17338269       0.08216545       0.00255382      -0.10900300       0.00465956       0.02021451       0.69082420       0.33742000       0.07597000       0.00434000       0.01418000       0.25431000       0.00259000       0.13600000       0.19798000      -0.00546000
W       -0.07003962       6.48707196       9.89845324      37.01704369       1.58416737      -2.97072694     -24.10441681      12.17324819      -1.23896433      -0.22082346       0.01831051       0.54419559     -24.10441681      12.17324819      -1.23896433       9.51040992      22.38748722      -8.37539782       0.04854054      -0.08461636      -0.16882955      -0.22082346       0.01831051       0.54419559       0.04854054      -0.08461636      -0.16882955       0.03601432      -0.01702090       0.01370333      -0.31568000       0.35101000       0.01944000       0.19602000      -0.70511000      -0.00382000       0.13770000       0.13216000      -0.01627000
S        1.63781273       7.37241509      11.36563445     -13.78105707      11.27254611      -1.96774670       7.98595185      -1.64446432      -3.92079793       0.25402542      -0.23479566      -0.20027773       7.98595185      -1.64446432      -3.92079793       1.09215797     -17.15499297      -3.06612747       0.11735352       0.16293126      -0.00244914       0.25402542      -0.23479566      -0.20027773       0.11735352       0.16293126      -0.00244914      -0.01048792       0.01943314      -0.51176989       0.38322000      -0.09021000       0.00003000       0.01385000       0.54960000      -0.00831000      -0.15313000      -0.17412000       0.01641000
S        1.49888640       7.36799558       8.26083266       1.31818672       9.63587318       8.10707472       6.48492484      -1.56501709       0.75420595      -0.00931816       0.23671798      -0.15847219       6.48492484      -1.56501709       0.75420595       1.36180484     -15.73222632       7.19419878      -0.08348707      -0.10552843      -0.15334428      -0.00931816       0.23671798      -0.15847219      -0.08348707      -0.10552843      -0.15334428      -0.02794999      -0.03906273       0.57133364       0.54631000      -0.02334000      -0.00404000       0.13546000       0.32148000      -0.00301000      -0.27276000       0.04840000       0.01117000
W        6.44393370       0.87813741       9.79642020      -0.27949877     -37.16711633      19.71703254     -13.06993711      -7.36023407      -3.18931378       0.67505222       0.03330517      -0.39127048     -13.06993711      -7.36023407      -3.18931378      17.48620853       8.50510369      12.94958259      -0.09499829       0.62138944       0.15227532       0.67505222       0.03330517      -0.39127048      -0.09499829       0.62138944       0.15227532      -0.03571965       0.01263178       0.06318975      -0.98118000       0.25944000      -0.02167000      -0.08471000      -1.13009000       0.02216000       0.29089000       0.09726000      -0.05710000
S        7.99450915       1.76242370      11.34718780      10.92439526       9.02439438      -0.62934304      14.33890092      -2.30252761       0.35045222       0.16180616       0.23901957       0.15100212      14.33890092      -2.30252761       0.35045222      -1.82514692      -6.93109376       0.76075897      -0.23895170       0.30453935       0.02703745       0.16180616       0.23901957       0.15100212      -0.23895170       0.30453935       0.02703745      -0.00482388      -0.02607931      -0.47912911       0.77286000       0.19372000      -0.00476000      -0.04025000       0.34900000       0.00613000      -0.17446000       0.28951000       0.02017000
S        8.08251504       1.92498480       8.28293021     -19.95586853       9.73227116       5.59044516       9.04171592      -7.41350327      -1.21837813      -0.17490222      -0.28520499      -0.24917882       9.04171592      -7.41350327      -1.21837813     -11.27302984     -19.48467763       8.45475119       0.16504328       0.05047422       0.11301259      -0.17490222      -0.28520499      -0.24917882       0.16504328       0.05047422       0.11301259       0.00762922       0.05929490       0.54199086       0.34085000       0.04836000      -0.00359000      -0.24960000       0.72404000      -0.00434000       0.25255000       0.30713000       0.01020000
W        4.79805056       3.71450201       9.86569122      17.36014341       6.53304025     -20.87103353     -21.29115511       6.45398156       4.26457809       0.05980948       0.07985904       0.35437689     -21.29115511       6.45398156       4.26457809       7.32915025      28.85925518     -13.19501462       0.22887395      -0.10855244      -0.17497698       0.05980948       0.07985904       0.35437689       0.22887395      -0.10855244      -0.17497698       0.01070754       0.00998683      -0.06149785      -1.22939000      -0.43982000      -0.01967000      -0.12918000      -0.95096000      -0.03896000      -0.04609000       0.01973000      -0.04875000
S        6.30356622       4.70447224      11.55317540       8.11801959       0.66122595     -23.15361585       4.86722685       7.03032071       0.93397737       0.04283406      -0.42093880      -0.08993208       4.86722685       7.03032071       0.93397737       8.90227756     -15.92521846     -17.72697761      -0.05214648       0.00085566       0.01264084       0.04283406      -0.42093880      -0.08993208      -0.05214648       0.00085566       0.01264084      -0.03781820       0.00375335      -0.70186788       0.15457000       0.20305000       0.00311000       0.17009000       0.16315000      -0.00243000       0.44351000      -0.25229000      -0.00099000
Se       6.48803272       4.59167866       8.17292284     -31.43726240       0.44120824      29.18307640       5.74445286      -1.42839648       2.28401000       0.40443107       0.19300891      -0.06932348       5.74445286      -1.42839648       2.28401000      -7.31846879     -13.34932086      24.23348220      -0.19051631       0.27851946      -0.03836400       0.40443107       0.19300891      -0.06932348      -0.19051631       0.27851946      -0.03836400       0.05319813       0.01702193       0.84184591       0.94053000      -0.06826000      -0.01122000      -0.09121000       0.68132000      -0.00508000       0.25306000       0.05113000       0.04921000
W        3.10787624       6.40992269       9.79805350      59.32474774      -9.60415796      -5.88759704       4.06018213      24.94992694       1.28330322      -0.15187563       0.09718324       1.00687975       4.06018213      24.94992694       1.28330322       7.70397826      61.31087973      -5.25271814       0.03020078      -0.32512902       0.61400203      -0.15187563       0.09718324       1.00687975       0.03020078      -0.32512902       0.61400203       0.07754411       0.03838375      -0.07190782      -1.43079000      -0.38639000      -0.01823000       0.05182000      -1.02215000      -0.00925000       0.11086000      -0.11815000      -0.04289000
Se       4.84752985       7.40373596      11.42923697     -11.23898694      10.31490915     -12.81585125       5.37620040      -1.45468559      -0.09952356      -0.37387086      -0.09893445      -0.05461012       5.37620040      -1.45468559      -0.09952356      -4.97487600       3.87261059     -13.34011326       0.04425877      -0.26721445      -0.09678985      -0.37387086      -0.09893445      -0.05461012       0.04425877      -0.26721445      -0.09678985       0.01030832      -0.01181296      -0.75969587       0.75199000      -0.07117000       0.00678000       0.00471000       0.72089000      -0.00786000      -0.00777000       0.09577000       0.06381000
Se       4.78623317       7.37779536       8.08827962       2.16854866       7.96957412      15.10165382       4.73264683       2.58529930      -0.87190866       0.47035499       0.03773703       0.13726991       4.73264683       2.58529930      -0.87190866       0.41583372       2.59765877      15.82256986       0.02461957       0.44298937       0.01420939       0.47035499       0.03773703       0.13726991       0.02461957       0.44298937       0.01420939       0.01569846      -0.02157693       0.95256850       0.63392000      -0.00451000      -0.00854000       0.05840000       0.67236000       0.00183000      -0.15495000      -0.11937000       0.04465000
27
Lattice="10.06723125665236 0.0 0.0 -5.03361562832618 8.718222268260943 0.0 0.0 0.0 20.459634082894592" Properties=species:S:1:pos:R:3:raman_tensor:R:27:born_effective_charge:R:9 susceptibility_tensor="_JSON [[-746.1771527294834, -0.9993700606631943, 0.007817374922824463], [-0.9993676313981468, -748.129980455902, 0.2991728502709825], [0.007837094839092328, 0.29919700002351346, -39.32765079061051]]" pbc="T T T"
Mo      -0.03704741       0.87403702      10.25528714      40.96013636     -38.08032614       9.81383005     -27.27268752       9.99678897     -14.00281418       0.70808799      -0.30760185       0.87419835     -27.27268752       9.99678897     -14.00281418      21.11592403      13.29655683      13.74193586      -0.56782157       0.72076303       0.15012045       0.70808799      -0.30760185       0.87419835      -0.56782157       0.72076303       0.15012045       0.01518117       0.00309851       0.38312426      -1.24597000       0.29845000       0.06528000      -0.19135000      -1.86137000      -0.05458000       0.21301000       0.10324000      -0.07079000
Se       1.54411193       1.90985444      11.80805689      22.18857416      13.72677843       5.64979069      12.28753275       9.63639420       5.23725321      -0.13700207       0.27933178       0.15324146      12.28753275       9.63639420       5.23725321      18.79706460       0.94575275       6.18984449       0.00436266      -0.33853445       0.26420053      -0.13700207       0.27933178       0.15324146       0.00436266      -0.33853445       0.26420053       0.00624965       0.00015344      -0.59310413       1.28524000      -0.00527000       0.01881000       0.04949000       1.14261000       0.00837000       0.19287000       0.07885000       0.06182000
Se       1.79035641       1.95978791       8.62661046     -30.03197667       6.33797339      12.72696514       5.14988893     -11.22974184       3.05353053       0.38062498      -0.12821233      -0.28764090       5.14988893     -11.22974184       3.05353053     -10.26997676      -8.79804357       6.06582522       0.17866640       0.42289448      -0.15292611       0.38062498      -0.12821233      -0.28764090       0.17866640       0.42289448      -0.15292611       0.00856915      -0.00050281       0.66308984       0.88474000      -0.07947000       0.02122000       0.04733000       0.94811000       0.00274000       0.38112000       0.03842000       0.05529000
Mo      -1.54521933       3.87074975      10.17273584     -93.00079081     -19.09847101      -1.39714680      -3.55696268     -27.80567141       1.56671389       0.05195190      -0.06137309      -1.32740852      -3.55696268     -27.80567141       1.56671389     -12.63725639      29.84024717      17.18895126       0.44587603       0.63570282      -0.10291899       0.05195190      -0.06137309      -1.32740852       0.44587603       0.63570282      -0.10291899      -0.02863044      -0.02751767       0.26791496      -2.40841000      -0.43959000      -0.03956000      -0.19130000      -1.27900000       0.03427000      -0.25549000      -0.29559000      -0.08247000
Se      -0.06503431       4.86982178      11.93067576       6.60497751       6.88936064     -35.31695374       5.30863571      -4.09608663       5.05332418      -0.16662233       0.27721525      -0.05295796       5.30863571      -4.09608663       5.05332418       3.85213772      -6.55487388     -30.24031740      -0.10342120      -0.33931293       0.06501414      -0.16662233       0.27721525      -0.05295796      -0.10342120      -0.33931293       0.06501414      -0.00097512       0.05355091      -0.82747391       0.60132000       0.17266000       0.01243000       0.10853000       0.80486000       0.01005000       0.05960000      -0.11870000       0.06377000
Se      -0.08134323       4.97452098       8.39224532      41.50668921     -19.58031279      42.81811399      -2.21420524      -1.93330140       1.14453158       0.28172734      -0.22582638       0.17111036      -2.21420524      -1.93330140       1.14453158      10.22322345     -43.75387302      25.53435263       0.15275551      -0.01236005      -0.27565088       0.28172734      -0.22582638       0.17111036       0.15275551      -0.01236005      -0.27565088      -0.00971325       0.01422370       0.93270635       0.88283000      -0.01590000       0.01976000      -0.01496000       0.36239000      -0.00660000      -0.00286000       0.13494000       0.03715000
W       -3.36487138       6.86061676      10.22579015      21.68722310       3.75333373      -2.98536178     -13.22320282      14.28169128       1.12489705      -0.27167298      -0.00589609       0.62479611     -13.22320282      14.28169128       1.12489705      -6.11979757     -36.29703911       0.51551029      -0.06802177      -0.30684839      -0.65490705      -0.27167298      -0.00589609       0.62479611      -0.06802177      -0.30684839      -0.65490705       0.01726326      -0.02812062      -0.26399581      -1.39420000      -0.07442000      -0.03030000       0.49145000      -0.90271000      -0.00438000      -0.17001000       0.10903000       0.04408000
Se      -1.56545446       7.79254035      11.86141321     -20.72806026      -2.16265181     -25.51761069       7.37352790      -4.68906555      -3.03485078      -0.31751308      -0.21521058      -0.07975238       7.37352790      -4.68906555      -3.03485078     -10.53852618      -7.90008213     -15.78561542       0.25978671      -0.21228983       0.03853347      -0.31751308      -0.21521058      -0.07975238       0.25978671      -0.21228983       0.03853347       0.00750650      -0.00991851      -0.70080492       0.83282000      -0.25937000      -0.01831000      -0.06837000       0.87909000      -0.00917000      -0.35192000      -0.02435000       0.03103000
Se      -1.63501903       7.87841384       8.50419293      -9.95058632       6.58616087      25.97658123      13.98771378       6.00417980       7.50279920       0.29944178       0.26296845      -0.24726728      13.98771378       6.00417980       7.50279920      -5.30963401       9.59561054      27.97377082      -0.16216896       0.03023338       0.14830023       0.29944178       0.26296845      -0.24726728      -0.16216896       0.03023338       0.14830023      -0.00683629      -0.03014246       0.77449209       0.68238000       0.00644000      -0.01556000       0.01281000       0.69496000       0.01612000       0.01937000      -0.02235000       0.07574000
Mo       3.46071142       1.00923993      10.25448176     -17.41503167       0.79521591       9.09903070     -19.80765120     -21.20521323       2.49114716       0.03722190      -0.15735023      -1.04742671     -19.80765120     -21.20521323       2.49114716     -15.95395351      38.92497427       2.10391558       0.47283150       0.06802431      -0.14273669       0.03722190      -0.15735023      -1.04742671       0.47283150       0.06802431      -0.14273669      -0.04372039      -0.00697775      -0.02676809      -1.89664000      -0.34500000       0.00723000      -0.11868000      -2.15331000      -0.02402000      -0.00001000      -0.21784000      -0.10569000
Se       5.02485714       1.98646607      12.06134842      -6.25181168      -0.03061041     -25.88017654       6.60997768       1.52936605       0.69394289      -0.14789225       0.19620701       0.18473851       6.60997768       1.52936605       0.69394289       5.18099269     -15.35269095     -21.90806833       0.05564417      -0.19658178       0.01846433      -0.14789225       0.19620701       0.18473851       0.05564417      -0.19658178       0.01846433       0.01198890       0.00857517      -0.97371308       0.44378000      -0.00361000      -0.00604000      -0.06538000       0.38806000       0.00992000      -0.20396000      -0.06207000       0.03020000
Se       5.04760908       1.93985479       8.67573855      17.97158869      -2.13357902       2.80442078       9.42167912       0.58878315      -9.39577392       0.17164834      -0.08206893       0.12132138       9.42167912       0.58878315      -9.39577392      11.06177820     -27.00211034     -19.93840608      -0.04972158      -0.21642740      -0.36816146       0.17164834      -0.08206893       0.12132138      -0.04972158      -0.21642740      -0.36816146      -0.01038251      -0.05763931       0.61092093       1.23608000       0.03105000      -0.01358000       0.03606000       1.00056000       0.00687000      -0.14495000      -0.16263000       0.08060000
Mo       1.61488457       3.96940861      10.25448176      22.83099743      -9.66436186     -30.38705850     -19.21855000      20.18320472      -1.00344865      -0.67986926      -0.06825892       0.38697936     -19.21855000      20.18320472      -1.00344865      -0.41383850      12.11300259     -22.51721686      -0.16575194      -0.56666838      -0.43940292      -0.67986926      -0.06825892       0.38697936      -0.16575194      -0.56666838      -0.43940292      -0.00169853      -0.02233593      -0.15209762      -2.12746000       0.11468000       0.03475000      -0.00254000      -1.29743000       0.01609000      -0.46659000       0.01872000      -0.08270000
Se       3.29369605       4.90948667      11.84741976      14.50776420       3.93968582      -5.69149380       0.17824852      -8.01148294       2.33637288      -0.07309113      -0.04236162       0.23769523       0.17824852      -8.01148294       2.33637288       1.34565147     -22.13770098     -12.28765353       0.19044029      -0.30749425      -0.11888746      -0.07309113      -0.04236162       0.23769523       0.19044029      -0.30749425      -0.11888746       0.05609290       0.02740218      -0.60709548       1.01587000      -0.09819000       0.00830000       0.00307000       1.34445000      -0.00514000      -0.03130000      -0.29811000       0.05872000
Se       3.26520579       4.88401657       8.55120690      18.31931147      -0.54393274       9.19242577       2.18649817       3.38871408      -1.89560569       0.36201725       0.29886756       0.04648191       2.18649817       3.38871408      -1.89560569      12.38637886      -9.53920634      19.39680162      -0.17463640       0.42796822       0.02658364       0.36201725       0.29886756       0.04648191      -0.17463640       0.42796822       0.02658364      -0.03783429       0.00389167       0.80676342       1.05591000       0.11582000       0.01786000       0.17429000       0.86840000      -0.00575000      -0.28709000       0.00044000       0.06893000
W       -0.07741701       6.73346763      10.10216455      13.27256750      -6.81285557      40.26745359       3.05408953      18.03734297      -2.85282419       0.52921829       0.13880226       0.84243644       3.05408953      18.03734297      -2.85282419       1.41889993       8.61816371      45.62726462      -0.19111963       0.88312195       0.57698107       0.52921829       0.13880226       0.84243644      -0.19111963       0.88312195       0.57698107       0.04183417       0.01121421       0.15277443      -0.95145000       0.53109000      -0.07613000      -0.23726000      -1.92528000       0.05455000       0.14801000       0.29871000       0.01052000
Se       1.55568925       7.68955258      11.83473505      25.98499805       2.54604010     -15.39618401       1.61656229       2.26989985      -0.78194127      -0.34517747       0.05338064       0.06349620       1.61656229       2.26989985      -0.78194127       4.17381164     -23.18334210      -8.93790437      -0.25998446       0.02743988      -0.40003640      -0.34517747       0.05338064       0.06349620      -0.25998446       0.02743988      -0.40003640      -0.01184205      -0.03777670      -0.63087536       1.07113000      -0.00360000      -0.00819000       0.14482000       0.94766000       0.00663000       0.29442000       0.18105000       0.06113000
Se       1.66814022       7.70948570       8.60285180      11.60179709      15.03242783       7.06936662      10.87345064      -0.73229865       0.19852374       0.14948833      -0.02330045      -0.03405286      10.87345064      -0.73229865       0.19852374      -3.38357477      11.46640902       8.94119850       0.28235542       0.19657231       0.00520613       0.14948833      -0.02330045      -0.03405286       0.28235542       0.19657231       0.00520613      -0.00722328      -0.00754668       0.66947600       0.72259000      -0.02560000      -0.00039000       0.07572000       0.80397000      -0.00533000      -0.16353000      -0.23956000       0.05402000
W        6.68685635       0.90454073      10.33149608     -43.10583303      28.89029186     -28.85533548      -6.25052602     -16.82018828       0.93063408      -0.00559551      -0.07752005      -0.14773405      -6.25052602     -16.82018828       0.93063408     -16.75237836      94.18633907     -25.36421732      -0.22946535      -0.49807705       0.59516137      -0.00559551      -0.07752005      -0.14773405      -0.22946535      -0.49807705       0.59516137       0.00142804       0.06404442       0.00736021      -1.77117000       0.08047000      -0.09792000       0.17702000      -1.31090000       0.02277000       0.05656000      -0.00096000       0.00370000
Se       8.30466041       1.84190063      12.01463647      42.49334244      11.91619235     -18.49212557       9.09404844       6.22210714       0.13668264      -0.45607374      -0.20222304       0.38543625       9.09404844       6.22210714       0.13668264      11.15258679      -5.63884022     -26.23869231       0.14950329      -0.52228783       0.22861301      -0.45607374      -0.20222304       0.38543625       0.14950329      -0.52228783       0.22861301      -0.00320449       0.01636860      -0.93645820       0.65990000       0.03307000      -0.01816000      -0.00360000       0.41545000      -0.00263000       0.29507000      -0.07354000       0.04896000
Se       8.47107174       1.80505456       8.73563858     -12.41375333      12.80770984     -12.68686059      15.70715801       1.12570996       7.85786528      -0.20141078       0.36559384      -0.30104524      15.70715801       1.12570996       7.85786528     -15.46924931     -12.70601067     -14.05596183       0.07226869      -0.24303523      -0.10485348      -0.20141078       0.36559384      -0.30104524       0.07226869      -0.24303523      -0.10485348      -0.01946739      -0.02190088       0.44367436       1.28212000       0.09794000      -0.02240000       0.07674000       1.02780000       0.00612000      -0.19296000      -0.24834000       0.04221000
Mo       5.05576354       3.79131929      10.19327299      -2.25863280       2.82885625      -1.49014751      18.53246005       3.50602612      -2.90676602      -0.24571728       0.04553237       0.26232472      18.53246005       3.50602612      -2.90676602     -14.61164885      86.89239384      17.38199023      -0.22419402       0.26756963       1.27363705      -0.24571728       0.04553237       0.26232472      -0.22419402       0.26756963       1.27363705      -0.01297926       0.03624914      -0.14459646      -1.74321000       0.21645000      -0.00741000       0.07602000      -1.86749000       0.02376000       0.39735000      -0.02923000      -0.08161000
Se       6.81007926       4.76482055      11.74322392      -7.91108898      15.91254550      -0.07006598       6.29467167       6.42801014       2.82118720      -0.13342279       0.11171797      -0.08051048       6.29467167       6.42801014       2.82118720       5.43518121       8.47799112      -5.07259448      -0.10628989      -0.38085097      -0.03297587      -0.13342279       0.11171797      -0.08051048      -0.10628989      -0.38085097      -0.03297587      -0.01727616       0.00855182      -0.50430132       1.32679000       0.02261000      -0.02454000      -0.35714000       1.31789000       0.02381000      -0.15574000       0.00834000       0.05388000
Se       6.83122044       5.06995833       8.45466215     -29.59363526     -27.67160190      32.34272446     -16.88793835       3.51907468       4.16628823       0.63046952      -0.23144421       0.13122890     -16.88793835       3.51907468       4.16628823      -5.22671731     -61.49281993      15.88969214      -0.06730998       0.78622228      -0.41031287       0.63046952      -0.23144421       0.13122890      -0.06730998       0.78622228      -0.41031287       0.04192551       0.04821131       0.90462179       0.66878000       0.05406000      -0.02564000      -0.21926000       0.64597000       0.00692000       0.26009000       0.58378000       0.04572000
Mo       3.40514030       6.81249539      10.23052175      -3.00073689     -46.17717985       6.52650614     -40.95235929      -1.02617002       0.13134896      -0.11167538      -0.26787527      -0.55670122     -40.95235929      -1.02617002       0.13134896      10.15307271     -81.39363727      -4.03165573       0.17710224      -0.08513150      -0.67260951      -0.11167538      -0.26787527      -0.55670122       0.17710224      -0.08513150      -0.67260951      -0.01123091      -0.02989375       0.00042923      -2.01297000      -0.52776000       0.05683000      -0.17329000      -2.11300000      -0.05421000       0.19939000       0.11381000      -0.09809000
Se       5.05958908       7.55998731      12.09084541      -9.92365302      24.08340016     -26.28676426      11.07472343      -1.11688569      -4.00590972      -0.39515635       0.11780319      -0.19719282      11.07472343      -1.11688569      -4.00590972       5.23760380      34.71552090     -39.25351256       0.11846890      -0.34407938       0.22491289      -0.39515635       0.11780319      -0.19719282       0.11846890      -0.34407938       0.22491289       0.02058619      -0.02408097      -1.05806146       0.21703000       0.00755000       0.02650000       0.01938000       0.36325000      -0.03215000      -0.17616000       0.26231000       0.00369000
Se       5.07438791       7.74663378       8.50318621     -14.61123489      16.28543180      24.64852297      11.26638667      -7.56907717      -6.50784216       0.06037222      -0.04835849      -0.12907986      11.26638667      -7.56907717      -6.50784216      -5.53401307       9.52445665      38.48486103      -0.18113299       0.11815616       0.24813907       0.06037222      -0.04835849      -0.12907986      -0.18113299       0.11815616       0.24813907      -0.01132630      -0.00432034       0.82001982       0.66196000       0.04726000       0.01226000       0.13960000       0.67555000      -0.02285000       0.09095000      -0.13779000       0.06446000
27
Lattice="9.867350441513059 0.0 0.0 -4.9336752207565295 8.54512548235031 0.0 -0.0 0.0 20.42245520879958" Properties=species:S:1:pos:R:3:raman_tensor:R:27:born_effective_charge:R:9 susceptibility_tensor="_JSON [[-687.7781659195772, -1.7073740618986635, 0.014863144837856777], [-1.7074307925051473, -689.2634018366874, 0.03737327396273988], [0.02549273390924678, 0.0565013545402151, -37.96395550399738]]" pbc="T T T"
Mo       0.04469910       0.94687095      10.22731139     -42.03957886      -9.80741830      -9.67526879      -8.68577669     -12.02786799      -0.20165186      -0.37840094      -0.05626149      -0.42032012      -8.68577669     -12.02786799      -0.20165186     -26.38311744       9.03439260     -12.80132776       0.01038061      -0.36140068      -0.13503179      -0.37840094      -0.05626149      -0.42032012       0.01038061      -0.36140068      -0.13503179      -0.03161946      -0.00135296       0.01847248      -2.03913000       0.03373000      -0.00045000       0.11847000      -1.73365000       0.01086000       0.06016000       0.07819000      -0.08479000
Se       1.57996015       1.90232649      11.92025270      15.83685795       3.52079998     -21.97282477       1.64640388       2.44801191       0.97522193      -0.24303898      -0.00571650       0.10698883       1.64640388       2.44801191       0.97522193      10.06043774     -10.46945762     -20.88102833       0.09950251      -0.31634857      -0.04413044      -0.24303898      -0.00571650       0.10698883       0.09950251      -0.31634857      -0.04413044       0.00361042       0.01770150      -0.76642186       0.95812000      -0.05448000      -0.00059000      -0.02018000       0.99422000       0.00302000       0.07550000      -0.18376000       0.04373000
Se       1.62396854       1.90607608       8.52825231       5.41667596       1.50860478      24.62120451       1.97227049      -0.46828582      -1.86069682       0.29814828       0.02024439       0.08160133       1.97227049      -0.46828582      -1.86069682       3.78279926     -11.83416368      19.96890074      -0.07398022       0.21861612      -0.04220794       0.29814828       0.02024439       0.08160133      -0.07398022       0.21861612      -0.04220794      -0.00551550      -0.01173018       0.73762409       1.09384000       0.00760000       0.00472000       0.04571000       0.93225000       0.00798000      -0.00883000       0.11947000       0.04430000
Mo      -1.63363854       3.79804186      10.20718199       4.58653093     -20.03102324       2.92926198     -17.51398370       1.57561640      -1.08233606       0.08444541       0.05422454       0.06886164     -17.51398370       1.57561640      -1.08233606      -7.73185553     -21.26929661       1.41456252      -0.06427709       0.10469251      -0.05666574       0.08444541       0.05422454       0.06886164      -0.06427709       0.10469251      -0.05666574       0.00274973      -0.00790180      -0.00497035      -1.93319000      -0.02506000       0.00281000       0.13471000      -2.08310000      -0.00580000       0.11439000       0.03218000      -0.09165000
Se      -0.05338237       4.72419137      11.93732322      11.20679247       3.07673168     -29.90501162       5.99690308       1.47336005       1.23577189      -0.37363790       0.04338752       0.04199784       5.99690308       1.47336005       1.23577189       7.88540542       0.33145524     -25.01476584       0.01941637      -0.22429332      -0.06348140      -0.37363790       0.04338752       0.04199784       0.01941637      -0.22429332      -0.06348140      -0.00533475      -0.02055369      -0.79351555       0.91704000      -0.04412000      -0.00257000      -0.01833000       0.89391000      -0.00112000       0.05654000       0.11094000       0.03950000
Se      -0.01095276       4.78339547       8.54986181      -2.26993088      -1.53730107      22.66774019       4.84513085      -1.54185635      -0.35169327       0.22581585      -0.00867433      -0.01168217       4.84513085      -1.54185635      -0.35169327       1.39273963     -10.54564812      15.34526074      -0.00481155       0.18995007      -0.16188523       0.22581585      -0.00867433      -0.01168217      -0.00481155       0.18995007      -0.16188523      -0.00955038      -0.00440227       0.69307465       1.07839000      -0.00737000       0.00085000       0.01550000       1.08083000      -0.00796000      -0.02208000      -0.02488000       0.04926000
Mo      -3.24556891       6.62572847      10.22129230      -2.85371387     -18.58332268      -1.22666673     -18.11365533      -4.79381892       1.45446972       0.04170055       0.02812756      -0.25900329     -18.11365533      -4.79381892       1.45446972      -7.30031203      24.36560914      -1.55613592      -0.01265331       0.06274584      -0.08909667       0.04170055       0.02812756      -0.25900329      -0.01265331       0.06274584      -0.08909667      -0.01148588       0.00304881       0.04309209      -1.75784000      -0.09401000      -0.00888000      -0.07965000      -1.71736000      -0.01596000       0.05390000      -0.00887000      -0.08207000
Se      -1.63659874       7.55691034      11.93949403      -4.01967219       6.06738624     -25.45323059       3.65966739      -3.10067844       0.33178411      -0.21987560       0.03681131      -0.05127691       3.65966739      -3.10067844       0.33178411      -0.44355890      -6.78966747     -22.24062839       0.05682174      -0.26310996      -0.11709440      -0.21987560       0.03681131      -0.05127691       0.05682174      -0.26310996      -0.11709440      -0.00016116      -0.00702648      -0.80069875       0.86052000      -0.04691000       0.00119000       0.04764000       0.87532000       0.00141000      -0.12821000      -0.02666000       0.04752000
Se      -1.65347191       7.60674046       8.55400610       1.07147401       0.41821017      20.65999313       1.59077689      -1.17152316      -1.59632582       0.20636204      -0.04504203       0.08260610       1.59077689      -1.17152316      -1.59632582       1.00960198     -18.50167846      16.75513475      -0.08902865       0.21096863      -0.20082129       0.20636204      -0.04504203       0.08260610      -0.08902865       0.21096863      -0.20082129      -0.00076134      -0.01542178       0.69602450       1.03315000      -0.02424000       0.00337000       0.06580000       0.96736000       0.00197000       0.06563000       0.11333000       0.04060000
Mo       3.26717840       0.90976971      10.23244241      24.65653769      -3.76091484      -1.61220369       7.87224350       9.47215586      -1.19810363       0.01059558      -0.00454283       0.13800935       7.87224350       9.47215586      -1.19810363      15.54593492      34.08776355       0.32501018      -0.05451370       0.06520425       0.45930492       0.01059558      -0.00454283       0.13800935      -0.05451370       0.06520425       0.45930492       0.01197551       0.02280314       0.01019283      -1.89357000      -0.01565000       0.01448000      -0.04400000      -2.04196000       0.02377000       0.07501000      -0.02968000      -0.08369000
Se       4.93525400       1.86088362      11.88660504       0.64217663      12.71211906     -17.25845687       8.05257458      -0.69641736       1.28115700      -0.33911268       0.09093520       0.01666224       8.05257458      -0.69641736       1.28115700       0.14870487      11.09658396     -20.57005180      -0.03379414      -0.33084388       0.15982373      -0.33911268       0.09093520       0.01666224      -0.03379414      -0.33084388       0.15982373       0.01556771       0.00048316      -0.73466627       0.95280000      -0.00557000       0.00249000      -0.06091000       0.98642000       0.00006000       0.01601000       0.13410000       0.03708000
Se       4.87624724       1.94071048       8.52479874       6.62634268       5.28642692      15.79291445       4.89141751       1.12894398       1.97117828       0.26960454      -0.00233816      -0.06324154       4.89141751       1.12894398       1.97117828       2.30865452      -5.05748310      18.13183117       0.14061825       0.31416224       0.06239637       0.26960454      -0.00233816      -0.06324154       0.14061825       0.31416224       0.06239637      -0.01430295       0.00796732       0.74405327       0.92039000       0.08243000      -0.00083000       0.02033000       1.02527000       0.00513000      -0.17446000       0.04541000       0.05013000
Mo       1.64350589       3.81086941      10.20234699      -8.93849734      -6.20140499       7.84419893      -2.48647958       1.28275661      -0.95974008       0.26061297      -0.03685990      -0.19232561      -2.48647958       1.28275661      -0.95974008       2.66796024      -7.57225608       6.78312108      -0.03335561       0.26006921      -0.05932701       0.26061297      -0.03685990      -0.19232561      -0.03335561       0.26006921      -0.05932701      -0.00317285      -0.00452569      -0.01019090      -2.22998000      -0.13746000       0.01284000       0.12052000      -2.24045000       0.00336000      -0.06795000      -0.04693000      -0.10085000
Se       3.24852911       4.74481413      11.88611167       7.29385784      10.97773089     -13.68261423       8.78949990       0.35591703       0.55438158      -0.18390157       0.00513544       0.00735010       8.78949990       0.35591703       0.55438158       0.72283480       5.23877470     -18.71035809      -0.04359835      -0.19540623       0.13874321      -0.18390157       0.00513544       0.00735010      -0.04359835      -0.19540623       0.13874321      -0.00929499      -0.00357884      -0.72385643       1.00439000       0.03425000       0.00584000       0.00618000       1.03200000      -0.00338000       0.15579000       0.10772000       0.03727000
Se       3.24961452       4.76691700       8.49578873       8.77756386       8.62633167      21.86796805       7.24190527       0.14623033      -0.67976370       0.23631851      -0.04957496       0.00744326       7.24190527       0.14623033      -0.67976370       0.42238897       0.91239492      26.64375936       0.04561627       0.24676263       0.04234508       0.23631851      -0.04957496       0.00744326       0.04561627       0.24676263       0.04234508      -0.00426387       0.00860373       0.78941443       0.86553000      -0.00950000       0.00075000      -0.04434000       0.94686000       0.00022000      -0.11636000      -0.04481000       0.04950000
Mo      -0.01549174       6.59770520      10.23076496      17.58692613      16.58572368      -6.86839312       8.32959942       8.54816334      -0.85953298      -0.14929626      -0.07140401       0.18809958       8.32959942       8.54816334      -0.85953298       5.75981127      74.61354826      -0.55329022      -0.00030795      -0.09621458       0.60427784      -0.14929626      -0.07140401       0.18809958      -0.00030795      -0.09621458       0.60427784       0.00937252       0.04298243       0.03186548      -1.91216000       0.11367000       0.01436000       0.10622000      -1.86627000      -0.00371000      -0.02567000      -0.02413000      -0.08719000
Se       1.64074303       7.61749587      11.84979982       8.29378022       4.57675573     -13.59253841       4.02795878       1.47280296       0.30159473      -0.18222278      -0.01634226       0.01560343       4.02795878       1.47280296       0.30159473       1.87348878      -7.77925022     -18.86109786      -0.02100614      -0.40557960       0.11803418      -0.18222278      -0.01634226       0.01560343      -0.02100614      -0.40557960       0.11803418      -0.00485061       0.02589062      -0.68583402       0.95363000       0.01089000       0.00354000      -0.04560000       1.06073000      -0.00011000       0.12405000      -0.15296000       0.04462000
Se       1.67419335       7.62765924       8.52558813      -4.88106098       1.26936169      16.05366598       3.03907118      -2.69527743       2.25107205       0.27642360       0.03858938      -0.07740447       3.03907118      -2.69527743       2.25107205      -4.22100433     -13.43340112      15.40342193       0.05662350       0.25250417      -0.17447795       0.27642360       0.03858938      -0.07740447       0.05662350       0.25250417      -0.17447795       0.00189331      -0.02267756       0.73228655       0.97763000      -0.00227000       0.00063000      -0.05780000       0.86255000      -0.00025000       0.06043000       0.06641000       0.04271000
Mo       6.60490837       1.01061403      10.13968931     -17.09007060     -19.96540164      19.61149285     -17.06443030      -7.35713429       0.63706917       0.45966273       0.01223518      -0.23928752     -17.06443030      -7.35713429       0.63706917      -7.28794637     -20.62200220      21.92170059       0.00337145       0.46813498      -0.38955005       0.45966273       0.01223518      -0.23928752       0.00337145       0.46813498      -0.38955005      -0.01127240      -0.03418146       0.03616239      -1.83192000       0.03493000      -0.01228000      -0.07846000      -1.76817000       0.00976000      -0.09942000      -0.04471000      -0.07279000
Se       8.22877823       1.90311588      11.89893922      -1.61887062       4.68045561     -27.67566396       4.15162808       1.85920563      -0.61015212      -0.29433222      -0.02073856       0.06743366       4.15162808       1.85920563      -0.61015212       1.78444011      -6.53642522     -25.74440591       0.00632226      -0.25408147       0.05468386      -0.29433222      -0.02073856       0.06743366       0.00632226      -0.25408147       0.05468386      -0.00619666       0.01637938      -0.74076893       0.90455000       0.06172000      -0.00636000      -0.00199000       0.92319000       0.00639000      -0.07333000       0.02506000       0.04321000
Se       8.26074844       1.91633813       8.48098770       0.14598179       6.04756701      22.06022511       5.72678053       3.88537226      -1.31514789       0.26478404      -0.05158033       0.13145020       5.72678053       3.88537226      -1.31514789       5.01672301      -2.18797519      23.94917094      -0.10321691       0.22913833       0.09327843       0.26478404      -0.05158033       0.13145020      -0.10321691       0.22913833       0.09327843       0.02623925       0.00761077       0.80082677       0.82866000      -0.04205000       0.00033000      -0.09803000       0.83022000       0.00321000       0.12836000      -0.02332000       0.03734000
Mo       4.90407317       3.86879076      10.22168700       4.23233992     -31.62550767      -5.12670610     -31.96204236       4.27602829      -0.25021069      -0.23186032      -0.02739719       0.30741731     -31.96204236       4.27602829      -0.25021069      -3.10371712     -50.81184984      -1.98469992       0.06901030      -0.16920390      -0.57057752      -0.23186032      -0.02739719       0.30741731       0.06901030      -0.16920390      -0.57057752       0.00580623      -0.03454003      -0.05900433      -1.80141000       0.09344000      -0.01373000      -0.01216000      -1.97369000      -0.00023000      -0.05189000       0.05950000      -0.08448000
Se       6.61507174       4.73997913      11.90703045     -12.02047162       6.05144499     -20.90800917       6.12665136      -1.12328859      -0.30435012      -0.23598146      -0.02526036       0.00187019       6.12665136      -1.12328859      -0.30435012      -2.04491328      -1.44730545     -22.60889886       0.10311686      -0.25601810       0.10478706      -0.23598146      -0.02526036       0.00187019       0.10311686      -0.25601810       0.10478706       0.01853252      -0.00309006      -0.74316752       0.90797000      -0.03324000      -0.00208000      -0.02613000       0.99273000      -0.00481000      -0.13830000       0.03632000       0.04080000
Se       6.62730725       4.70978504       8.53762630      -9.77664169      11.11917255      17.58498812       9.43818351      -1.17413260       1.00412416       0.28385802       0.03132357      -0.10338169       9.43818351      -1.17413260       1.00412416      -1.46883258      10.55609198      22.03259353      -0.09061844       0.27325566       0.13194364       0.28385802       0.03132357      -0.10338169      -0.09061844       0.27325566       0.13194364       0.00975681       0.00301969       0.72201947       0.97708000      -0.01513000      -0.00422000      -0.00923000       1.00517000      -0.00675000       0.12931000      -0.20568000       0.04166000
Mo       3.30279954       6.63885205      10.21270771     -23.71814355      -4.56041799      -4.96865545     -10.97822023      -7.16922938      -0.96786182      -0.14336321       0.05024997      -0.05570903     -10.97822023      -7.16922938      -0.96786182      -5.34948315      31.89482772      -3.97394817      -0.02394628      -0.15181436       0.10185402      -0.14336321       0.05024997      -0.05570903      -0.02394628      -0.15181436       0.10185402      -0.00579733       0.00677109      -0.04270145      -1.81513000       0.17347000      -0.00774000      -0.08603000      -1.87427000      -0.02065000      -0.07673000      -0.06706000      -0.08153000
Se       4.96327727       7.57121799      11.86312074       2.35528307       6.33521589     -12.82511361       4.11326470       1.34758796      -0.36239622      -0.21281463       0.02059820       0.11192568       4.11326470       1.34758796      -0.36239622       0.20978129      -9.48066194     -13.64943723      -0.02128323      -0.19369453      -0.05021813      -0.21281463       0.02059820       0.11192568      -0.02128323      -0.19369453      -0.05021813       0.01068871      -0.00010975      -0.68631500       1.04209000      -0.05993000      -0.00369000      -0.01098000       0.99835000      -0.00217000      -0.00759000       0.01403000       0.04902000
Se       4.94916696       7.54408278       8.52953507      10.59950879       7.67327999      20.97266663       5.81372826       4.28231974       0.46297454       0.27362859      -0.00562200       0.10223105       5.81372826       4.28231974       0.46297454       4.35447696      -0.30752220      20.31169637       0.04906297       0.32389547       0.08171636       0.27362859      -0.00562200       0.10223105       0.04906297       0.32389547       0.08171636       0.00259960       0.00934602       0.73713055       0.93856000      -0.02914000      -0.00478000       0.01277000       0.89155000      -0.00424000      -0.12426000      -0.05921000       0.03077000
27
Lattice="9.734542837532572 0.0 0.0 -4.867271418766286 8.430114097303207 0.0 -0.0 0.0 20.033689159642034" Properties=species:S:1:pos:R:3:raman_tensor:R:27:born_effective_charge:R:9 susceptibility_tensor="_JSON [[-616.1472612842795, -0.13092370939905099, 0.003596718224340268], [-0.13091690635279515, -615.8338632591665, 0.038044727907687696], [0.004033683118465705, 0.03504733189292485, -36.03726591765226]]" pbc="T T T"
Mo       0.09121267       0.89869299      10.07534918     -56.30121566      -5.93582200      -8.21401321      -4.49444589     -19.25899080       0.00540541      -0.22539377      -0.07133153      -0.71934783      -4.49444589     -19.25899080       0.00540541     -17.80397527      33.80570306      -9.42619614      -0.01340186      -0.37481593       0.38238957      -0.22539377      -0.07133153      -0.71934783      -0.01340186      -0.37481593       0.38238957      -0.05103768       0.01485994       0.04275465      -1.64801000       0.03620000      -0.00298000       0.10978000      -1.86054000      -0.00363000      -0.00770000       0.02098000      -0.10459000
S        1.64309349       1.91001465      11.57845994      12.25845037       8.24997499      -6.54271306       6.72721743       4.80339669       0.88732364       0.17290552       0.07460930       0.08515917       6.72721743       4.80339669       0.88732364       4.48779547     -10.91135152      -5.97394239      -0.00146591      -0.05369877       0.03675863       0.17290552       0.07460930       0.08515917      -0.00146591      -0.05369877       0.03675863      -0.01563332       0.00052946      -0.51098356       0.53966000      -0.11208000      -0.00825000      -0.09101000       0.68175000       0.00757000       0.05078000      -0.19547000       0.01720000
Se       1.64961563       1.83067813       8.31222878       4.00014599       3.49462245      22.85307102       2.08002514       0.12695648      -2.50864583       0.18259666      -0.10236211      -0.06165033       2.08002514       0.12695648      -2.50864583       0.20551809     -16.47100695      23.36283964       0.00559975       0.31930169      -0.18951573       0.18259666      -0.10236211      -0.06165033       0.00559975       0.31930169      -0.18951573      -0.00577113       0.00894805       0.82704952       0.83487000      -0.06767000       0.00075000      -0.03913000       0.75764000       0.00749000       0.01083000       0.08490000       0.04730000
Mo      -1.63199611       3.70817940      10.00010117      11.60525209      -6.44272485       1.94280227     -16.24798148       4.49503725      -1.89895180       0.02453183      -0.02236076       0.00386615     -16.24798148       4.49503725      -1.89895180       6.04595500      10.78509096       3.75920990      -0.09049768       0.26664069      -0.14656569       0.02453183      -0.02236076       0.00386615      -0.09049768       0.26664069      -0.14656569       0.01876317       0.01465765      -0.03240939      -1.79669000      -0.25166000       0.01332000      -0.08902000      -1.66709000       0.01342000      -0.07963000       0.00946000      -0.09535000
Se      -0.01226552       4.66664249      11.69128329      -1.77123201       3.25442995     -18.89333684       5.01897534       1.56388476       0.43802892      -0.28607915      -0.00020622      -0.01423679       5.01897534       1.56388476       0.43802892       6.41680482      -8.56103091     -19.91714955       0.05412267      -0.30077281      -0.10848445      -0.28607915      -0.00020622      -0.01423679       0.05412267      -0.30077281      -0.10848445      -0.01233250       0.00902547      -0.79416740       0.74488000       0.04404000       0.00385000      -0.03861000       0.96154000      -0.01026000       0.06183000      -0.11344000       0.04647000
Se      -0.05684973       4.66839471       8.32371554       0.74724096       5.60245703      16.40372153       8.20733489      -2.95494055       0.80984711       0.19820372      -0.01892517      -0.04234555       8.20733489      -2.95494055       0.80984711       1.41134949       0.12750342      15.39567220      -0.02708613       0.13030607       0.04788411       0.19820372      -0.01892517      -0.04234555      -0.02708613       0.13030607       0.04788411       0.00840525      -0.02070814       0.77893100       0.95484000       0.01250000      -0.00026000       0.01938000       0.84241000      -0.00563000      -0.06444000      -0.05402000       0.06659000
Mo      -3.26486832       6.57188722      10.04439334       6.28970061     -28.61264191      15.11112777     -25.72461629      -5.04404763      -0.92078519       0.46864827      -0.07724575       0.01773928     -25.72461629      -5.04404763      -0.92078519       5.30197676      -6.81664601      13.33401858      -0.01350248       0.47036329      -0.18806685       0.46864827      -0.07724575       0.01773928      -0.01350248       0.47036329      -0.18806685      -0.00262142      -0.02066099      -0.00672517      -1.59212000       0.01916000      -0.00854000       0.21871000      -1.51099000      -0.01747000       0.00506000      -0.14573000      -0.08845000
Se      -1.59091634       7.47340323      11.77383222     -11.08129725       7.26425999     -22.89179118       8.89352794      -5.43274936       1.22148546      -0.42903210      -0.00586721      -0.10307215       8.89352794      -5.43274936       1.22148546      -5.83176286       3.99918836     -19.44892679       0.05171371      -0.28104893       0.05024721      -0.42903210      -0.00586721      -0.10307215       0.05171371      -0.28104893       0.05024721      -0.00100146      -0.03650995      -0.92297506       0.95896000      -0.06397000      -0.00358000      -0.00095000       0.68750000      -0.00924000      -0.16444000       0.20337000       0.04859000
S       -1.68096086       7.52392550       8.54887552      -0.76036862      11.02875065      -1.13674968       8.80785410       1.51799046      -1.82776200      -0.10531464      -0.05471512       0.03513977       8.80785410       1.51799046      -1.82776200       2.97331961     -10.75046803      -2.16656946      -0.07060703      -0.09419097      -0.04268676      -0.10531464      -0.05471512       0.03513977      -0.07060703      -0.09419097      -0.04268676       0.00545136       0.02222082       0.39136627       0.74657000       0.03945000      -0.00433000      -0.02519000       0.94508000      -0.00852000      -0.01454000       0.08398000       0.03010000
Mo       3.24987713       0.95116218      10.04799512      17.41189508     -24.18229312      -4.03675948     -15.68390777       3.29716136      -1.79643791       0.11178961       0.12752150       0.09289370     -15.68390777       3.29716136      -1.79643791      12.26963841      25.62868878      -5.13131761       0.00055552      -0.15772667       0.08991556       0.11178961       0.12752150       0.09289370       0.00055552      -0.15772667       0.08991556       0.01400857       0.00919632       0.07212616      -1.65658000       0.13864000      -0.00950000      -0.05299000      -1.63431000      -0.00177000       0.02754000       0.02829000      -0.09871000
S        4.89345734       1.91001465      11.59315910      -6.77937339      10.21509770      -8.25223650       8.04082987      -1.90432577      -0.62856030       0.01185885       0.01989050      -0.03739473       8.04082987      -1.90432577      -0.62856030      -3.92823882      -6.46072180      -6.54461154      -0.05443772       0.02545804      -0.11388338       0.01185885       0.01989050      -0.03739473      -0.05443772       0.02545804      -0.11388338       0.01659211      -0.03219229      -0.55651784       0.45654000       0.09373000       0.00241000       0.00033000       0.42882000       0.01158000      -0.05909000       0.06492000       0.01658000
Se       4.86104131       1.88781989       8.33588372       2.38058804       4.46626667      15.78748502       3.30761396      -3.92320919       2.73247227       0.04432480       0.03316915      -0.10629628       3.30761396      -3.92320919       2.73247227      -4.35403654     -15.16702589      19.03072563       0.11180445       0.28220439      -0.08591054       0.04432480       0.03316915      -0.10629628       0.11180445       0.28220439      -0.08591054      -0.00736935       0.02682105       0.75348372       0.80970000       0.00045000      -0.00138000       0.05291000       1.01105000       0.00428000      -0.09226000       0.07706000       0.04336000
W        1.61885447       3.74526801       9.96719841     -21.80111370      -7.17534193      -4.79097656      -5.81086172      -2.35453366       0.23511818      -0.10929459       0.00629160      -0.14310558      -5.81086172      -2.35453366       0.23511818     -11.10162939      18.89631646       3.20187941       0.02938918       0.09503388      -0.21042308      -0.10929459       0.00629160      -0.14310558       0.02938918       0.09503388      -0.21042308      -0.00552175       0.00853635      -0.09153506      -1.23320000       0.12391000      -0.01581000       0.20535000      -1.05779000       0.04806000      -0.05813000       0.05510000      -0.04132000
S        3.21775313       4.69973994      11.49591102       5.04509695       7.27829242       3.91818877       8.30976409      -0.10749244       0.87394338       0.19982875      -0.07461299      -0.07845593       8.30976409      -0.10749244       0.87394338      -0.19922370     -19.44363127       5.24171320       0.02101158       0.17812811       0.00647006       0.19982875      -0.07461299      -0.07845593       0.02101158       0.17812811       0.00647006      -0.02220829       0.02057533      -0.41675736       0.48034000       0.02708000       0.00056000       0.10899000       0.47187000      -0.00036000       0.11311000      -0.07678000      -0.00046000
Se       3.23722222       4.71687273       8.27552956       0.42534305       7.36511383      20.62643356       7.76011023       2.93163900      -2.38731445       0.24706206      -0.00878106      -0.00313511       7.76011023       2.93163900      -2.38731445       5.64799825      -5.35406304      19.86597980      -0.11052202       0.19775616       0.11411614       0.24706206      -0.00878106      -0.00313511      -0.11052202       0.19775616       0.11411614       0.00675778      -0.00944763       0.86220822       0.66810000      -0.06658000       0.00019000      -0.10359000       0.60831000      -0.00440000      -0.00171000      -0.01266000       0.04798000
Mo      -0.03095585       6.54862166      10.02180920      13.55192128      -9.19099123      10.69931122     -11.93700920      10.38550680       1.70065685       0.14866191       0.01180422       0.16012413     -11.93700920      10.38550680       1.70065685      -5.41764789       5.01183637       6.98190062       0.05726174       0.09385517       0.16741572       0.14866191       0.01180422       0.16012413       0.05726174       0.09385517       0.16741572       0.01916445      -0.00620310       0.03147915      -1.94761000      -0.17542000      -0.01235000      -0.20124000      -2.13037000      -0.03644000      -0.01769000      -0.00299000      -0.10596000
Se       1.60298717       7.55390790      11.70685856      -4.44769713      -2.29561581     -22.59906597       3.42961202      -4.94454598      -0.43243316      -0.32402376       0.10166236      -0.02654603       3.42961202      -4.94454598      -0.43243316      -2.06048650     -13.51740551     -20.83544934      -0.02818914      -0.21277210      -0.02076755      -0.32402376       0.10166236      -0.02654603      -0.02818914      -0.21277210      -0.02076755      -0.00268849      -0.00017553      -0.78824863       1.04709000       0.12347000       0.01105000       0.12372000       0.84408000      -0.00522000       0.07162000      -0.07369000       0.06315000
Se       1.61204029       7.47603155       8.31914031      -5.08511953       8.23780072      17.29432148       7.22292220      -5.29024391      -0.26880042       0.35179976      -0.11889191      -0.00778205       7.22292220      -5.29024391      -0.26880042      -0.70887688       3.82872769      18.70343664       0.03924488       0.28970132       0.09202658       0.35179976      -0.11889191      -0.00778205       0.03924488       0.28970132       0.09202658       0.02356738       0.00575702       0.80662166       0.74508000      -0.04925000      -0.00054000      -0.04424000       0.85333000      -0.00555000       0.02720000      -0.08158000       0.04448000
Mo       6.48057720       0.95505600       9.99455248      23.55383570     -13.95838556       3.62616457     -14.07745528      11.59698644       0.77172803       0.36860782      -0.11396694       0.44835537     -14.07745528      11.59698644       0.77172803       4.18058960       0.12967197       2.06195024      -0.02087636       0.08402064      -0.07435078       0.36860782      -0.11396694       0.44835537      -0.02087636       0.08402064      -0.07435078       0.02023350      -0.01765097       0.07239633      -1.66744000       0.09801000       0.01529000      -0.21094000      -2.01142000       0.00318000       0.05563000      -0.00979000      -0.09962000
Se       8.13875923       1.84099674      11.72691172       0.65929781       7.29036627     -23.69612890       6.04361602      -2.85395778      -0.81336760      -0.46096929       0.02794443       0.02485327       6.04361602      -2.85395778      -0.81336760      -3.53271767       7.55093173     -24.08116855       0.02543661      -0.40782637      -0.05341085      -0.46096929       0.02794443       0.02485327       0.02543661      -0.40782637      -0.05341085       0.00774330      -0.01712539      -0.84125589       0.81704000      -0.01489000       0.00053000       0.06539000       0.96085000       0.00598000      -0.09625000       0.22112000       0.05462000
Se       8.20738776       1.80283733       8.37306968      -9.07661358       4.56806751      18.17985047       4.38527376      -0.15976705       0.46238714       0.28272598       0.01555378       0.12302050       4.38527376      -0.15976705       0.46238714      -2.94391306      -3.03818483      18.56232674      -0.01644178       0.27375259      -0.07159912       0.28272598       0.01555378       0.12302050      -0.01644178       0.27375259      -0.07159912       0.01608271      -0.00958524       0.70157711       1.13611000       0.04031000       0.00196000      -0.02868000       1.08010000       0.00383000       0.23905000      -0.14343000       0.05174000
W        4.85072270       3.74556005      10.02268531      15.97541490     -16.56768513     -22.43408981     -12.94603799       3.87122591       0.99070447      -0.84333770       0.04334631       0.22111532     -12.94603799       3.87122591       0.99070447       4.59731589      22.76760556     -22.17712754       0.05445960      -0.58474328       0.07967790      -0.84333770       0.04334631       0.22111532       0.05445960      -0.58474328       0.07967790      -0.00534380       0.00496793      -0.10502038      -0.77320000      -0.02761000      -0.01049000      -0.04923000      -0.77426000       0.07007000       0.02041000       0.07247000      -0.02502000
S        6.47074531       4.64980173      11.56775194      -2.73416228       6.22478431      -4.13730440       7.71910111       2.45944254      -0.19250206       0.12568379      -0.00819571       0.04911285       7.71910111       2.45944254      -0.19250206      -0.99220666      -9.16905507      -5.74699641      -0.03540360      -0.01853057       0.04910670       0.12568379      -0.00819571       0.04911285      -0.03540360      -0.01853057       0.04910670       0.03096953       0.02414134      -0.48408847       0.45527000      -0.02511000      -0.00302000      -0.01664000       0.64664000      -0.00216000      -0.05503000      -0.11982000       0.00209000
Se       6.49079847       4.70051870       8.31709605      -2.21202169       5.33484753      18.58737124       7.98240344       3.16555840       2.67633691       0.37062607       0.10743432       0.00951720       7.98240344       3.16555840       2.67633691      -1.22263486      -2.07121768      17.90247066       0.06481070       0.27767623       0.07011960       0.37062607       0.10743432       0.00951720       0.06481070       0.27767623       0.07011960      -0.01888200      -0.04166270       0.82588664       0.88578000       0.09924000       0.00109000       0.11347000       0.65515000       0.00067000       0.03025000      -0.00730000       0.05373000
W        3.26019574       6.58512619      10.04410130     -20.18803354       5.16831027      -5.21346252      -8.73092266      -8.13982977      -1.00624353      -0.10712148       0.05233396      -0.12787581      -8.73092266      -8.13982977      -1.00624353      -5.44950256      12.93914491     -11.11169923      -0.08758078      -0.19572351       0.01727637      -0.10712148       0.05233396      -0.12787581      -0.08758078      -0.19572351       0.01727637      -0.01550171      -0.00425322      -0.05913060      -1.32342000       0.01813000       0.03226000       0.05550000      -0.96873000      -0.04927000       0.01519000       0.05911000      -0.03382000
Se       4.84877579       7.49219089      11.82824831      14.17249636       1.25148584     -25.55973839       4.00404270       7.39189311       1.96183356      -0.41361948      -0.07950860       0.09288532       4.00404270       7.39189311       1.96183356       9.25853238     -10.85973772     -25.54547663       0.03976499      -0.24743530       0.00408379      -0.41361948      -0.07950860       0.09288532       0.03976499      -0.24743530       0.00408379      -0.00053905       0.00665894      -1.00280630       0.76586000      -0.06818000      -0.00510000      -0.14861000       0.49676000      -0.00650000       0.16824000      -0.00157000       0.03896000
S        4.88294403       7.51370423       8.49037092      13.91427764       8.45040181      13.16398056       8.13120388       4.96634038      -0.99418754      -0.01380277       0.13206581       0.09170707       8.13120388       4.96634038      -0.99418754       2.42778200      -8.61942496      10.71694617       0.00905744      -0.07179524       0.08882060      -0.01380277       0.13206581       0.09170707       0.00905744      -0.07179524       0.08882060      -0.01765316       0.02603446       0.46007459       0.59159000       0.00812000       0.00287000       0.06654000       0.68262000      -0.00974000      -0.18584000       0.05750000       0.02036000
27
Lattice="10.033385082406067 0.0 0.0 -5.016692541203033 8.688911481363652 0.0 -0.0 0.0 20.104897028125276" Properties=species:S:1:pos:R:3:raman_tensor:R:27:born_effective_charge:R:9 susceptibility_tensor="_JSON [[-712.2265991034869, -1.0519390195200549, 0.21084749457706903], [-1.051951014604066, -691.84243870685, -0.13620334207698107], [0.20555445454069576, -0.13437339437671975, -37.78240210464369]]" pbc="T T T"
W       -0.09912984       1.01868959      10.04281646      55.39549970     -59.26590816     -38.43708391     -42.69050187       9.60121768       1.82912273      -0.88519766      -0.08365557       0.95981167     -42.69050187       9.60121768       1.82912273      11.41506065     -31.19518688     -39.27126617       0.00918727      -0.63762743      -0.38625930      -0.88519766      -0.08365557       0.95981167       0.00918727      -0.63762743      -0.38625930       0.05618386      -0.03298114      -0.09364302      -0.69620000      -0.07944000      -0.02074000       0.20184000      -1.60294000      -0.11916000      -0.24977000       0.06150000      -0.02113000
S        1.62340171       1.83711281      11.50026598      -6.86834340      45.45226230      38.98078002      27.95926995      -3.73728649      -4.71872797       0.66784678      -0.25158573      -0.39154453      27.95926995      -3.73728649      -4.71872797      -1.93854483      27.43334665      21.53131478      -0.17609927       0.67776912       0.35065237       0.66784678      -0.25158573      -0.39154453      -0.17609927       0.67776912       0.35065237      -0.03159329       0.02372649      -0.40917061       0.38344000       0.14368000       0.03492000       0.09858000       0.38330000      -0.01892000       0.45687000       0.29005000      -0.02154000
S        1.69363540       2.00025565       8.49456481      -3.61323695      23.30231340      -1.67244495      16.85311536      -0.80160090       2.46640070      -0.24049952       0.19559949      -0.11512976      16.85311536      -0.80160090       2.46640070      -6.84131114       3.37242323       4.32046422       0.06290719       0.00786359       0.33658702      -0.24049952       0.19559949      -0.11512976       0.06290719       0.00786359       0.33658702      -0.00964697       0.00625404       0.56025374       0.29860000       0.03267000       0.01073000      -0.04323000       0.20942000      -0.01415000      -0.09843000      -0.09708000      -0.05229000
W       -1.59039187       3.84619784      10.00719795     -89.48958703     -28.82192679       9.12165943      -5.68325050     -27.44107094      -1.96420375       0.59528904       0.11455066      -0.36947235      -5.68325050     -27.44107094      -1.96420375     -36.52775675      45.57025984      14.36867234       0.03545391       0.15392871       0.08297509       0.59528904       0.11455066      -0.36947235       0.03545391       0.15392871       0.08297509      -0.03875651       0.00576501       0.11083448      -1.22799000      -0.10655000      -0.11472000      -0.18115000      -0.93850000       0.01367000       0.21211000       0.13860000       0.01781000
Se       0.02959849       4.85615838      11.78752180      13.15609592       8.83752636     -10.85135504       5.36223786      -0.84999322       3.81242035      -0.36840470      -0.03694933       0.35654991       5.36223786      -0.84999322       3.81242035       1.96056036      -1.93074105     -11.80486052      -0.10769066      -0.56038464       0.58948535      -0.36840470      -0.03694933       0.35654991      -0.10769066      -0.56038464       0.58948535       0.03099914       0.03570268      -1.01974620       0.28871000      -0.03701000      -0.01004000       0.02965000       0.09636000       0.01381000      -0.01138000      -0.20649000       0.00802000
Se       0.24752361       4.80649312       8.43486617      -3.00177048      13.49663501       3.23874729       9.03119489      -1.60801142      -3.16030443       0.08558986       0.06057798       0.21599063       9.03119489      -1.60801142      -3.16030443      -3.93358451      -2.71696458      -2.03996094       0.09185954       0.04704071       0.26934719       0.08558986       0.06057798       0.21599063       0.09185954       0.04704071       0.26934719       0.05368162       0.02986743       0.70744898       0.80120000       0.03571000      -0.00086000      -0.11380000       0.89303000       0.01413000       0.40321000       0.13743000      -0.00021000
W       -3.32265580       6.78537766      10.06258223     -33.00653495     -61.71968884     -35.39612319     -29.23292374       4.63801931     -27.06050993      -0.38253124      -0.09609679      -0.55396551     -29.23292374       4.63801931     -27.06050993      35.43798300     -70.09267492     -33.00973226      -0.55557370      -0.25781533      -0.72452629      -0.38253124      -0.09609679      -0.55396551      -0.55557370      -0.25781533      -0.72452629      -0.00585369      -0.04423942      -0.12119803      -1.10686000       0.12191000      -0.09517000       0.30531000      -0.94719000      -0.04812000       0.73636000      -0.04309000       0.04200000
S       -1.70497313       7.57530607      11.39832679      16.97371114      55.83899596      66.53426481      39.08780709       1.95792986      12.49912117       0.78569769       0.15482672       0.31294444      39.08780709       1.95792986      12.49912117       9.43869368      67.38119033      22.46868312      -0.09119960       0.56829583       0.85484895       0.78569769       0.15482672       0.31294444      -0.09119960       0.56829583       0.85484895      -0.00424374       0.03042956      -0.29250944       0.67853000       0.01680000      -0.02272000      -0.14577000       0.59036000      -0.01189000      -0.32163000       0.25643000      -0.01780000
Se      -1.66002356       7.90841446       8.27884703     -19.29985854       6.90321973      19.74925337       1.36968983      -7.40667693       4.99145816       0.38748428      -0.19766697       0.16487665       1.36968983      -7.40667693       4.99145816     -18.39190343     -13.58645116      22.09095394       0.14906787       0.41507460       0.17620622       0.38748428      -0.19766697       0.16487665       0.14906787       0.41507460       0.17620622       0.05894539       0.07953958       1.02035454       0.36514000       0.17759000      -0.01775000       0.12257000       0.61425000       0.00919000      -0.00411000       0.41799000      -0.00476000
W        3.23616802       1.06173281      10.07592664      29.78262454    -130.07783913     -35.91261475     -81.03126917      17.61023546       2.42147191      -1.10960838       0.04582101       0.80603505     -81.03126917      17.61023546       2.42147191      -1.71721412    -132.06025945     -13.73333436       0.20898420      -1.12129226      -1.42631658      -1.10960838       0.04582101       0.80603505       0.20898420      -1.12129226      -1.42631658       0.09366542      -0.12919823      -0.19761893      -0.84022000      -0.24674000       0.04257000      -0.65254000      -0.80996000       0.06823000      -0.22254000       0.25823000      -0.00091000
Se       4.99512076       1.81393569      11.73996355     -11.63266339      10.39995689     -11.80024903       9.77083932      -6.62021037      -4.70899565      -0.02070363      -0.04289835      -0.09178389       9.77083932      -6.62021037      -4.70899565      -2.75832116      -2.63175591      -9.76793710       0.16116105      -0.39997812      -0.07440212      -0.02070363      -0.04289835      -0.09178389       0.16116105      -0.39997812      -0.07440212       0.04368908       0.04873745      -0.92248399       0.25254000      -0.15675000      -0.00680000      -0.05571000       0.69343000       0.01531000      -0.34707000       0.12629000      -0.01207000
Se       4.99782978       1.78142752       8.46125397     -33.32019173      37.51090018      -4.52803787      25.28697871      -6.55561377       9.07320650      -0.10900271      -0.03387988      -0.19064811      25.28697871      -6.55561377       9.07320650      -9.18783251      45.85944986       5.24013034      -0.04890472       0.09980392       0.10362949      -0.10900271      -0.03387988      -0.19064811      -0.04890472       0.09980392       0.10362949      -0.01368602      -0.09067604       0.65601696       1.02726000       0.15042000      -0.00491000       0.15746000       0.84708000       0.00297000       0.19393000      -0.68058000       0.03870000
W        1.73918697       3.86174958      10.13442127     -50.78826036     -39.53799126       3.50692456     -32.57015518     -27.82890287      -2.22969979       0.27337334      -0.14516505      -0.75647819     -32.57015518     -27.82890287      -2.22969979     -10.94707752      58.14272397      -5.45535805      -0.23751879      -0.06423798      -0.53246556       0.27337334      -0.14516505      -0.75647819      -0.23751879      -0.06423798      -0.53246556      -0.03755657       0.03607336       0.19694124      -1.04911000       0.47383000       0.14040000      -0.05650000       0.11661000       0.02914000      -0.26984000       0.10450000       0.00222000
Se       3.29877635       4.84411832      11.86126718       5.34547363      -9.63034630     -16.55323070      -1.62256812      -2.30366581       4.11721738      -0.02963871       0.31861229       0.20561449      -1.62256812      -2.30366581       4.11721738       2.72351579     -41.11650321      -7.89719788       0.13131538      -0.13613020      -0.18040492      -0.02963871       0.31861229       0.20561449       0.13131538      -0.13613020      -0.18040492       0.01929414       0.01157266      -0.98755881       0.68832000      -0.12245000       0.01694000      -0.17792000       0.23432000       0.01689000      -0.06715000      -0.42889000      -0.00507000
S        3.32145180       4.74047345       8.59309265      -9.53809771      12.82999627       0.29965611       6.98836961      -4.77364091       4.58844959      -0.21805546      -0.12534549      -0.26215232       6.98836961      -4.77364091       4.58844959      -8.28829633     -25.79953413      -4.67676426       0.08942747      -0.08666818       0.01295756      -0.21805546      -0.12534549      -0.26215232       0.08942747      -0.08666818       0.01295756      -0.05893299       0.03112797       0.49271183       0.38265000       0.07792000       0.03044000       0.02526000       0.39374000       0.01194000       0.14889000       0.26555000      -0.01717000
W        0.06290932       6.93076141       9.99064286     -82.42542249     -51.23314374     -15.69762209     -48.86060875     -26.24856485       7.76762813      -0.55167163      -0.00383176      -0.13655182     -48.86060875     -26.24856485       7.76762813     -67.94370549    -104.75835206      -1.60133416       0.09110887      -0.16984905      -1.44416323      -0.55167163      -0.00383176      -0.13655182       0.09110887      -0.16984905      -1.44416323      -0.03419753      -0.11617675       0.01549426      -1.04210000      -0.37185000       0.04394000      -0.51795000      -1.16074000       0.02129000       0.01970000      -0.62209000       0.02122000
Se       1.70196311       7.67563992      11.78411045     -27.42254152      29.00984323     -24.35994343       9.98094268      -0.83056804      -8.77247311      -0.30387323      -0.23247989      -0.03912582       9.98094268      -0.83056804      -8.77247311      -0.93317203      26.68418582     -26.49496297       0.14491853      -0.39884978       0.43587877      -0.30387323      -0.23247989      -0.03912582       0.14491853      -0.39884978       0.43587877       0.04313366       0.00712977      -0.93129341       0.46644000      -0.01996000       0.01371000       0.03567000       0.75865000      -0.00606000      -0.15699000       0.13456000       0.00962000
Se       1.73156160       7.79543854       8.17399816       1.89919579       0.75841034      35.45675835      -2.01461815       5.56428346       0.84783756       0.38975545       0.28322763      -0.14852051      -2.01461815       5.56428346       0.84783756       6.93918192     -10.90451598      36.43969781      -0.16810360       0.59561154      -0.09003234       0.38975545       0.28322763      -0.14852051      -0.16810360       0.59561154      -0.09003234      -0.04179874       0.01216241       1.16972395       0.44472000       0.01969000       0.02323000       0.18676000       0.32338000       0.00406000       0.12961000       0.33669000      -0.01462000
W        6.71343829       0.97424169       9.94689730       8.44680110       3.33291271      42.52405562      -1.28943353      -6.43378252      -4.82306630       1.24556755      -0.05514258      -0.53171277      -1.28943353      -6.43378252      -4.82306630      14.90646240      18.71588756      34.49890737      -0.26207130       0.75277329      -0.24917880       1.24556755      -0.05514258      -0.53171277      -0.26207130       0.75277329      -0.24917880      -0.03879412      -0.00090329       0.10578438      -1.49795000      -0.33633000      -0.03392000       0.69167000      -2.43999000       0.02606000       0.37528000      -0.09305000      -0.01567000
S        8.30362949       1.86169460      11.45922944      10.46861007      25.52220947      24.23831356      21.47724521       7.84965013       6.24884208       0.40465604      -0.05508609      -0.04526001      21.47724521       7.84965013       6.24884208       6.73076167       5.77033701       9.81470813      -0.05816240       0.21210629      -0.12870339       0.40465604      -0.05508609      -0.04526001      -0.05816240       0.21210629      -0.12870339      -0.03972233      -0.00918912      -0.39049153       0.58018000       0.05038000      -0.01496000       0.16868000       0.84665000      -0.01426000       0.33716000       0.08954000      -0.00457000
Se       8.28627174       1.93584132       8.30603751      19.30852619      13.39651989       6.09016759      14.07505486      12.92307159      -4.23268867      -0.44114149       0.16948022       0.10845438      14.07505486      12.92307159      -4.23268867      16.41954859       1.03418130       8.14690970       0.06682763       0.37144752       0.05747102      -0.44114149       0.16948022       0.10845438       0.06682763       0.37144752       0.05747102      -0.00146055      -0.03491750       0.92062726       0.63199000      -0.04208000      -0.01933000       0.11292000       0.72501000      -0.00612000      -0.53253000       0.07308000       0.01653000
W        4.94264616       3.75288736      10.06649525      89.58762501      39.70477487      34.54491487       1.56214417      31.22908466      -2.27947828       0.64775295       0.12063876       0.35172105       1.56214417      31.22908466      -2.27947828      46.69975785      97.33946680      22.90736845       0.35006486       1.02538661       0.68734395       0.64775295       0.12063876       0.35172105       0.35006486       1.02538661       0.68734395       0.03315714       0.06288499       0.00094972      -0.79392000      -0.16943000      -0.00295000      -0.25913000      -0.82274000       0.04312000       0.02287000       0.12177000       0.00604000
Se       6.69587987       4.77518896      11.71758910       5.99110328      15.24375027      -1.69231646       6.31512377       2.74988821      -1.55511228      -0.09330259      -0.14544962       0.13796576       6.31512377       2.74988821      -1.55511228       6.05456040     -12.20486604      -2.55002654      -0.05132976      -0.27136302       0.15451383      -0.09330259      -0.14544962       0.13796576      -0.05132976      -0.27136302       0.15451383      -0.03149192      -0.01186783      -0.84819266       0.69846000       0.06469000      -0.01928000      -0.10215000       0.33800000       0.00889000      -0.00056000       0.05882000       0.00464000
S        6.65996035       4.65067465       8.57352755       0.92499974      40.45439431     -29.87157793      14.41130322       0.35131059      -3.81986153      -0.21102008       0.00742661      -0.01584719      14.41130322       0.35131059      -3.81986153      -3.87858439      14.05414444     -13.05666933      -0.24064508      -0.10469074       0.13212369      -0.21102008       0.00742661      -0.01584719      -0.24064508      -0.10469074       0.13212369       0.00563080       0.01179555       0.46887447       0.35105000      -0.07103000      -0.03081000       0.06201000       0.54921000       0.00962000      -0.27912000      -0.19572000      -0.01682000
W        3.27198721       6.70771926      10.16873545     132.04413952     -43.99053341     -51.86944214      22.27954958      33.71611541       3.36833520      -0.74337914      -0.23547231       0.71169913      22.27954958      33.71611541       3.36833520      34.83415309      13.37334911     -36.08208975       0.23116424      -0.98508587       0.66943190      -0.74337914      -0.23547231       0.71169913       0.23116424      -0.98508587       0.66943190       0.03622027       0.01268453      -0.34890184      -1.54460000       0.26154000       0.07564000       0.33268000      -1.18230000      -0.03048000      -0.64336000       0.06280000       0.00206000
Se       4.98649205       7.80105724      11.70775638       5.62223169      11.09971762      -1.17327069       4.97130015       1.51084630       0.32055433      -0.15095855       0.24619809      -0.11691563       4.97130015       1.51084630       0.32055433      -3.70266477     -10.00802813       2.57491856       0.01573364      -0.03093284      -0.18186884      -0.15095855       0.24619809      -0.11691563       0.01573364      -0.03093284      -0.18186884      -0.03565700      -0.01486720      -0.75077438       0.52722000       0.02839000      -0.00599000      -0.04327000       0.76581000      -0.02120000       0.08976000      -0.09768000       0.02513000
Se       5.07147482       7.49574133       8.40877937     -24.68925957      23.32565993      -4.41905255      13.66116933      -6.43529671       4.96452244       0.37334373       0.03706328      -0.57697499      13.66116933      -6.43529671       4.96452244     -16.12646623      30.24551641       2.98395077       0.16616252       0.30598155       0.42361203       0.37334373       0.03706328      -0.57697499       0.16616252       0.30598155       0.42361203      -0.03294829       0.02804111       0.88827208       0.93250000       0.10440000      -0.01157000      -0.18194000       0.52576000      -0.01797000       0.07872000      -0.46916000       0.01063000
27
Lattice="9.6362164204484 0.0 0.0 -4.8181082102242 8.344963420108316 0.0 -0.0 0.0 20.03369393811223" Properties=species:S:1:pos:R:3:raman_tensor:R:27:born_effective_charge:R:9 susceptibility_tensor="_JSON [[-682.8704598195343, 1.579488537940924, 0.20839692289231196], [1.579858774535003, -691.5197340638223, 0.13415397352157354], [0.17174901260394013, 0.10456209582950277, -36.215865976786766]]" pbc="T T T"
W       -0.11235828       1.00043199      10.15830663      58.10602166     -57.63409565     -36.88415019     -30.06462416      23.72345746       2.36864503      -0.52365925      -0.05061073      -0.05520222     -30.06462416      23.72345746       2.36864503      13.41282872     -76.80138280     -24.72100738      -0.25844895      -0.89905750      -0.67541322      -0.52365925      -0.05061073      -0.05520222      -0.25844895      -0.89905750      -0.67541322       0.00817561      -0.05548923      -0.00590189      -0.60550000      -0.01913000      -0.04432000       0.49196000      -0.65705000       0.02290000      -0.14314000      -0.29160000       0.02354000
Se       1.57195598       1.77084749      11.79655978      -0.24072560      25.10583302     -31.30424364      14.74815184      -0.27342556       4.24488471      -0.37803092       0.00675090       0.10795462      14.74815184      -0.27342556       4.24488471      15.17382016      27.46194131     -36.15385238       0.14578322      -0.37184227       0.50271446      -0.37803092       0.00675090       0.10795462       0.14578322      -0.37184227       0.50271446       0.03256734       0.04208629      -0.83745251       0.70602000       0.03434000      -0.01958000       0.03988000       1.01120000       0.00659000      -0.04757000       0.28751000       0.03123000
S        1.47636472       1.81584862       8.61863197      15.18547248       8.34293109     -13.11387207       9.67052952      -5.24554662      -0.99467986       0.23795961       0.16794594       0.10216649       9.67052952      -5.24554662      -0.99467986      11.05787189       2.76016225     -14.10727672       0.11525410      -0.15821966       0.24866020       0.23795961       0.16794594       0.10216649       0.11525410      -0.15821966       0.24866020      -0.02697892      -0.01499079       0.29052892       0.97229000       0.17935000       0.00753000       0.25192000       0.76935000       0.02147000      -0.30077000      -0.10563000       0.01193000
Mo      -1.57147417       3.70531794       9.84705684      -2.22653332     -25.57459749      52.29392442     -14.29288216     -12.79939168      -3.35116357       1.18062090       0.03757568      -0.08135044     -14.29288216     -12.79939168      -3.35116357      -6.78790031       8.16731494      39.83211830      -0.06745601       1.36098985       0.30818537       1.18062090       0.03757568      -0.08135044      -0.06745601       1.36098985       0.30818537      -0.01331085      -0.00610457       0.05806568      -2.12113000       0.81899000       0.00778000      -1.00607000      -3.16092000       0.03437000       0.07378000       0.77911000      -0.11050000
Se      -0.09491673       4.49230773      11.60788266      14.72818715      21.57309722     -30.41316271      10.67257434       0.94746370      -1.66272033      -0.35422970      -0.03129359       0.08075711      10.67257434       0.94746370      -1.66272033      -1.18727107      17.84071303     -32.39631257      -0.28959207      -0.12912124       0.09148717      -0.35422970      -0.03129359       0.08075711      -0.28959207      -0.12912124       0.09148717      -0.01757767      -0.06346031      -0.63814750       1.75168000       0.00455000      -0.00712000       0.10088000       0.99694000      -0.00355000       0.28189000       0.48226000       0.04048000
Se      -0.01570703       4.70806262       8.28541160     -14.70246748       8.38240656      23.02854808       0.31885468     -10.93714551       2.19626801      -0.35093951      -0.08482743      -0.03820584       0.31885468     -10.93714551       2.19626801     -20.56657847     -31.48928163      30.89578453       0.31967709       0.14874639       0.00234343      -0.35093951      -0.08482743      -0.03820584       0.31967709       0.14874639       0.00234343       0.01460832       0.06863642       0.71928179       1.01124000       0.30210000      -0.02916000       0.29628000       1.33893000      -0.02628000      -0.23192000      -0.05224000       0.08037000
Mo      -3.13774479       6.52959661      10.03265036     -25.10977650      34.28460783       5.12694453       2.27969306       8.08973280       6.45924681      -0.32879873       0.15152239       0.50832396       2.27969306       8.08973280       6.45924681     -41.69344091      77.07754307      -8.12719210       0.20630323      -0.36941860      -0.03737051      -0.32879873       0.15152239       0.50832396       0.20630323      -0.36941860      -0.03737051      -0.00578179       0.01121623      -0.03696118      -2.09392000      -0.19401000      -0.01448000       0.49981000      -1.50741000      -0.05292000      -0.19942000      -0.62630000      -0.10829000
S       -1.44697426       7.62870345      11.70010125     -34.03672673     -47.97723244     -29.29493787     -14.30618334     -12.29918835      -3.75529004       0.07323758      -0.20929987      -0.28031008     -14.30618334     -12.29918835      -3.75529004     -19.06460469     -83.22770767     -21.91789858       0.13849930      -0.17266258      -0.42839600       0.07323758      -0.20929987      -0.28031008       0.13849930      -0.17266258      -0.42839600      -0.03109399       0.05026931      -0.54102421       0.34380000      -0.00063000       0.00628000       0.32041000       0.63416000       0.00266000      -0.42952000      -0.88530000       0.00224000
S       -1.65078023       7.52549958       8.38582098       5.73046700      -9.21222530      33.82951588       1.97443583      -0.20531225      -1.98334996       0.11708334       0.11167960      -0.09951324       1.97443583      -0.20531225      -1.98334996      11.54358136     -36.66617207      15.42109437      -0.05063588      -0.30330766      -0.46096691       0.11708334       0.11167960      -0.09951324      -0.05063588      -0.30330766      -0.46096691       0.02589704      -0.06693457       0.57010441       0.58668000       0.04554000      -0.00028000       0.01520000       0.17466000      -0.01581000       0.03655000       0.26559000       0.00311000
Mo       3.22707252       0.86157411      10.02060509     -12.77645434      57.46622035      30.33330788      42.23700387     -26.88277990      -1.40148106       0.55523534       0.00523785      -0.19341431      42.23700387     -26.88277990      -1.40148106     -20.98699973     127.44723138      43.21610041      -0.05658280       0.77833176       1.27090264       0.55523534       0.00523785      -0.19341431      -0.05658280       0.77833176       1.27090264       0.01574121       0.10678081       0.18389465      -1.45578000      -0.13802000       0.01420000      -0.34797000      -2.22670000       0.00168000       0.38010000      -0.40052000      -0.06823000
Se       4.85279859       1.83762647      11.88126212      -4.36552469      20.07639304     -49.89333181       8.06666128      18.55473603      -9.05754308      -0.35472027      -0.43096646       0.03364497       8.06666128      18.55473603      -9.05754308       0.48896151       1.01278568     -61.43111383      -0.24966501      -0.49989886      -0.23211442      -0.35472027      -0.43096646       0.03364497      -0.24966501      -0.49989886      -0.23211442      -0.03784961       0.02738143      -0.97899275       0.67197000       0.06808000       0.02331000       0.07431000       0.69283000      -0.00533000       0.30425000       0.04567000       0.02586000
S        4.76742171       2.00963293       8.43525477      13.25206726     -26.36021807      27.19613177      -4.46072493      24.98438404       8.37833776      -0.06984947      -0.04622288      -0.01618507      -4.46072493      24.98438404       8.37833776      11.51987868     -60.22242452      16.48304828      -0.24784106       0.14048900      -0.13972342      -0.06984947      -0.04622288      -0.01618507      -0.24784106       0.14048900      -0.13972342       0.03562323       0.01155790       0.46734717       0.69011000      -0.28279000       0.00203000      -0.25925000       0.69594000      -0.02187000      -0.22431000       0.60476000       0.00216000
Mo       1.60683909       3.84109223       9.88974527      70.80711487     -65.35559566      69.21794900     -55.42400282      18.78357334       6.40560682       0.62186656      -0.42204003       0.67482694     -55.42400282      18.78357334       6.40560682      28.22805051    -116.82651641      63.81772556       0.12552496       0.79072379      -1.39233852       0.62186656      -0.42204003       0.67482694       0.12552496       0.79072379      -1.39233852       0.01827900      -0.07865020       0.11250654      -2.68720000      -1.09620000      -0.01539000      -0.30678000      -1.36612000       0.01008000       0.34399000       0.00742000      -0.07653000
Se       3.26157017       4.65487070      11.85534070     -14.79951682       5.96546098     -74.37165285       1.05781343      -6.54704215       2.80026381      -0.69380085       0.28463728       0.20105063       1.05781343      -6.54704215       2.80026381     -15.27216094      -4.02069815     -62.81754536       0.33292330      -0.61990005       0.28627217      -0.69380085       0.28463728       0.20105063       0.33292330      -0.61990005       0.28627217       0.04095619       0.01398579      -0.99040338       0.22611000      -0.04357000       0.00858000       0.09357000       0.61806000       0.01091000      -0.33988000       0.03904000      -0.00175000
Se       3.36515950       4.62162576       8.09336181     -10.91622132       6.07476068      43.38538869       8.82937260      -6.22094376     -10.42278458       0.48088823      -0.09566069       0.11921756       8.82937260      -6.22094376     -10.42278458       3.38680599      11.34272912      47.56305990      -0.49035018       0.36164231       0.06193509       0.48088823      -0.09566069       0.11921756      -0.49035018       0.36164231       0.06193509       0.04196062       0.01175332       1.07113680       0.30176000      -0.15135000      -0.00102000      -0.13086000       0.43558000      -0.00578000       0.40041000      -0.48191000       0.03500000
W       -0.07631883       6.37907891      10.06204082      40.83065052      27.60156466     -42.01947298      16.31062535      29.34840739       0.46856629      -0.80831314       0.13382269       0.49127638      16.31062535      29.34840739       0.46856629      34.43913119     142.93303571     -36.30206960       0.02641894      -0.93695286       0.76071194      -0.80831314       0.13382269       0.49127638       0.02641894      -0.93695286       0.76071194       0.03654668       0.04700506      -0.03591719      -1.25750000       0.22589000      -0.02186000      -0.00731000      -0.97001000      -0.04946000      -0.21456000       0.28177000      -0.03447000
S        1.62485881       7.36072027      11.58253941       9.39421409      -1.21294878     -13.78214424       5.63189236      -0.86476741       1.48722502      -0.22374913       0.11543846       0.12493646       5.63189236      -0.86476741       1.48722502      -3.48159457     -16.02015307     -15.11586648      -0.03796405      -0.23957734      -0.16361618      -0.22374913       0.11543846       0.12493646      -0.03796405      -0.23957734      -0.16361618       0.03179442      -0.01823775      -0.44460202       0.81153000       0.07883000      -0.00177000      -0.23834000       0.61490000       0.00247000      -0.01675000      -0.13948000      -0.00334000
Se       1.55104540       7.27543976       8.21285089      13.43475869      25.04734921      35.32896228      17.58020154       2.86457819       0.99008584       0.64122791       0.16044699       0.04920962      17.58020154       2.86457819       0.99008584     -13.29073727      35.87053208      47.44355043       0.07725532       0.74478992      -0.00177143       0.64122791       0.16044699       0.04920962       0.07725532       0.74478992      -0.00177143      -0.03736551      -0.04361303       0.93811162       0.63064000       0.15355000      -0.00212000       0.03160000       0.81635000       0.01365000      -0.44161000      -0.53738000       0.01970000
Mo       6.34862846       0.96005624      10.09490032      10.40115852     -40.50219134     -59.44525756     -34.94242948      -0.07097612      -0.75588223      -1.81524451       0.16488922       0.68002578     -34.94242948      -0.07097612      -0.75588223      12.00526935     -18.22317729     -45.42712521       0.32471855      -1.30095388      -1.18720842      -1.81524451       0.16488922       0.68002578       0.32471855      -1.30095388      -1.18720842       0.06460870      -0.02681562      -0.23829327      -1.42250000      -0.79527000      -0.00625000       0.05707000      -1.20604000       0.01177000      -0.24486000      -0.26067000      -0.03771000
Se       7.96086383       1.90498362      11.77507102      -7.81110653       8.59426013     -45.44587711       5.18717566      -9.88058435       0.33856839      -0.02911819       0.04157258      -0.42734413       5.18717566      -9.88058435       0.33856839      -2.51111141     -13.37805373     -36.68591358       0.05952381       0.00381470       0.13991257      -0.02911819       0.04157258      -0.42734413       0.05952381       0.00381470       0.13991257      -0.01467552       0.08215275      -0.76388441       0.43711000       0.05863000       0.00764000       0.05700000       0.98395000       0.01310000       0.08457000      -0.27375000       0.03543000
Se       7.96982551       1.89814191       8.13672478      -3.16747151     -13.54139101      66.67548085       1.22293643      -2.72141650      -2.96596908       0.90755076       0.07134063      -0.12791487       1.22293643      -2.72141650      -2.96596908      12.05805271     -27.06099693      49.51158589      -0.08869985       0.30367970       0.09164371       0.90755076       0.07134063      -0.12791487      -0.08869985       0.30367970       0.09164371      -0.01372162      -0.00559802       1.11237660       0.19007000       0.18672000      -0.00959000       0.08668000       0.29820000       0.01376000      -0.10224000       0.22321000       0.00207000
W        4.95089527       3.73114300       9.95584972    -171.22751890       1.66033582      30.54666317      12.19879975     -59.27534722       0.68532182       0.77853593       0.23431224      -1.58704077      12.19879975     -59.27534722       0.68532182     -59.23330643     -19.81711876      30.37690495       0.36286810       0.79783172       0.38904758       0.77853593       0.23431224      -1.58704077       0.36286810       0.79783172       0.38904758      -0.12189203       0.02147639       0.19596104      -1.23063000       0.81291000       0.04729000       0.64668000      -1.13992000       0.04059000      -0.02453000       0.64856000      -0.00254000
Se       6.44865239       4.73600765      11.67437256      47.97333278      -7.29730861     -45.87038378      -0.13433792      15.69044145       3.63863122      -0.45730260      -0.05470010       0.33504761      -0.13433792      15.69044145       3.63863122      26.17469969     -15.90318760     -32.52941941      -0.07020679      -0.16586429      -0.31358525      -0.45730260      -0.05470010       0.33504761      -0.07020679      -0.16586429      -0.31358525       0.00441746      -0.04022636      -0.69733498       1.02430000      -0.11117000      -0.00414000      -0.34621000       0.94746000      -0.00930000       0.27927000      -0.11491000       0.02207000
Se       6.48083735       4.62124031       8.28647159      28.25721314      16.19855185      37.72413250      17.65887501       2.27856774      -2.83910599       0.10231575      -0.12448446       0.18232747      17.65887501       2.27856774      -2.83910599       5.13718569      33.69487520      28.33806527       0.02414612       0.08648349       0.52755948       0.10231575      -0.12448446       0.18232747       0.02414612       0.08648349       0.52755948      -0.02835388      -0.02577549       0.72410297       1.31129000      -0.12133000       0.02943000      -0.36374000       1.19270000       0.00484000      -0.12210000      -0.35112000       0.07267000
Mo       3.27978262       6.49095538       9.88319265       5.63592487     -17.11954062      26.79785803     -35.71967905      13.41790564      -0.45120948       1.10609615      -0.10296898      -0.43212060     -35.71967905      13.41790564      -0.45120948      23.75731098       1.42522609      32.91687628      -0.05252035       0.78300439       0.23833360       1.10609615      -0.10296898      -0.43212060      -0.05252035       0.78300439       0.23833360       0.00516184      -0.02224610       0.03308823      -0.33828000       0.20570000       0.02077000      -0.04430000      -1.87850000       0.00203000       0.20093000       0.03557000      -0.03512000
Se       4.76713263       7.25616733      11.67340893       3.77888684      30.20692005     -14.63854876      12.55492827       4.91549811      -2.65222405      -0.05559273       0.04769494      -0.23035552      12.55492827       4.91549811      -2.65222405       3.42068857      52.29614866     -40.30793168      -0.13236591      -0.28076863       0.11562217      -0.05559273       0.04769494      -0.23035552      -0.13236591      -0.28076863       0.11562217      -0.01642679      -0.03635185      -0.67032187       1.05496000       0.10374000      -0.00832000       0.15940000       1.12942000      -0.01697000      -0.02255000       0.40264000       0.05072000
S        4.98548929       7.55662455       8.47341418     -36.25999681      15.32946139       4.95374091       1.60310028      -8.84701310       1.79814264      -0.37318949      -0.09381333      -0.23927728       1.60310028      -8.84701310       1.79814264      -8.41941296     -21.01842249      22.11015134      -0.17211525       0.12293234      -0.17471417      -0.37318949      -0.09381333      -0.23927728      -0.17211525       0.12293234      -0.17471417      -0.00274463       0.01337348       0.44764148       0.49087000      -0.32543000       0.01057000      -0.17179000       0.76204000      -0.00556000       0.72000000       0.41768000       0.01988000
27
Lattice="9.597999242461107 0.0 0.0 -4.7989996212305535 8.311867343971318 0.0 -0.0 0.0 19.573199855150936" Properties=species:S:1:pos:R:3:raman_tensor:R:27:born_effective_charge:R:9 susceptibility_tensor="_JSON [[-598.4839659142026, -0.579159988179025, 0.04658121463697529], [-0.5791681893377392, -596.7135845162838, -0.011158049210635804], [0.04859472336129644, -0.011776739653637224, -34.29746506172732]]" pbc="T T T"
Mo       0.02841008       0.95989590       9.83142258     -10.67440566     -29.70434614       4.27069311     -27.30347846      -0.05006601      -0.08224508       0.04830872       0.08557238      -0.14268193     -27.30347846      -0.05006601      -0.08224508      -3.62259144     -13.45593683       3.76072872      -0.02960629       0.19538397      -0.36031807       0.04830872       0.08557238      -0.14268193      -0.02960629       0.19538397      -0.36031807      -0.02745507      -0.02764706       0.00730894      -1.39533000       0.22543000       0.00887000       0.44377000      -1.48755000      -0.00072000       0.10593000      -0.10598000      -0.10298000
S        1.77169468       1.78196454      11.30500341     -19.81324399      13.38487155      -1.32381132      10.05205495      -7.11373855      -2.74147154       0.10351164      -0.07744956      -0.06015139      10.05205495      -7.11373855      -2.74147154     -12.80816049      -3.34519016      -6.63806539       0.07538859       0.04207605       0.14508162       0.10351164      -0.07744956      -0.06015139       0.07538859       0.04207605       0.14508162      -0.00401831       0.00573238      -0.47420542       0.77329000      -0.02085000       0.00854000       0.00302000       0.80464000      -0.01560000      -0.46015000       0.08017000       0.02835000
S        1.55746734       1.86076411       8.22711701      -6.28100511       8.35063072       4.57689271       8.82206880      -2.48826859       1.14464489      -0.07562215       0.02973799       0.00139543       8.82206880      -2.48826859       1.14464489      -3.96648361     -12.56468502       5.54703066      -0.12254234      -0.01008155       0.08196432      -0.07562215       0.02973799       0.00139543      -0.12254234      -0.01008155       0.08196432       0.01235462       0.01095758       0.54913204       0.78633000       0.08322000       0.00200000       0.10671000       0.63789000      -0.00722000       0.03914000       0.04730000       0.04175000
Mo      -1.62033423       3.64599197       9.84361204      13.70048711      -4.67561091      14.76633709      -9.47426521       6.97063394      -0.85951299       0.45431435      -0.11915741       0.28521994      -9.47426521       6.97063394      -0.85951299       3.92205994      49.28674393      12.09347645      -0.11205821       0.43073407       0.61165355       0.45431435      -0.11915741       0.28521994      -0.11205821       0.43073407       0.61165355       0.02249867       0.00682621       0.01139001      -1.21394000      -0.08493000      -0.00185000       0.00812000      -1.11852000      -0.01461000      -0.00405000       0.05340000      -0.07626000
Se       0.05538046       4.72768649      11.53717901     -33.51203091      -7.18835102     -34.20366752      -1.62844997      -1.08929525      -2.85609391      -0.49737710      -0.01885939      -0.07818016      -1.62844997      -1.08929525      -2.85609391      -5.25514261     -22.74328134     -27.68106277       0.01153905      -0.45316653       0.03103058      -0.49737710      -0.01885939      -0.07818016       0.01153905      -0.45316653       0.03103058       0.02148104       0.01895877      -0.91894264       0.97271000       0.00909000       0.00427000      -0.04430000       0.78053000       0.00966000      -0.25527000      -0.27646000       0.06601000
S       -0.02313118       4.59024314       8.27616279      -9.28561971       3.86495411       6.80602065       5.68873958       2.60863519       2.89802848       0.07362318       0.02244646      -0.04474505       5.68873958       2.60863519       2.89802848       0.47045943     -14.03364032       2.52035665       0.03063765      -0.10433208      -0.03683856       0.07362318       0.02244646      -0.04474505       0.03063765      -0.10433208      -0.03683856       0.00586932       0.00689651       0.47943057       0.93856000      -0.01011000      -0.01058000       0.02262000       0.59382000      -0.00637000      -0.05600000       0.02384000       0.04442000
Mo      -3.13134725       6.43872181       9.74945567     -27.06483568     -20.52322173      -3.75539951     -11.13408263     -10.65508390      -2.07676182      -0.29751193      -0.12123608      -0.38378241     -11.13408263     -10.65508390      -2.07676182     -11.75208443      16.90333907      -0.93194404      -0.05880340      -0.30006197       0.01972315      -0.29751193      -0.12123608      -0.38378241      -0.05880340      -0.30006197       0.01972315      -0.03030330       0.01979903      -0.02537147      -1.36459000      -0.32300000       0.01325000      -0.39412000      -1.21576000       0.02385000      -0.13023000       0.05674000      -0.08181000
S       -1.67677047       7.34438902      11.34752254      17.38420781      10.91790138     -26.85423736      10.26207562       2.18676836       2.18661686      -0.08958123       0.08833125       0.24127841      10.26207562       2.18676836       2.18661686       8.12337830      -1.28381910     -24.11663861      -0.03441512      -0.02301849       0.08770008      -0.08958123       0.08833125       0.24127841      -0.03441512      -0.02301849       0.08770008       0.00291284      -0.01349535      -0.53025858       0.60724000      -0.01011000      -0.00245000      -0.07535000       0.55636000       0.00679000       0.24249000       0.07876000       0.03062000
S       -1.60065833       7.30062214       8.00089217      -1.54304225       8.86889301      27.04527035       5.44617621      -0.72908467      -0.45762346       0.17548154      -0.07265631       0.00321827       5.44617621      -0.72908467      -0.45762346      -0.13394251      -2.62501794      26.51686829       0.10259703       0.10462872      -0.17430018       0.17548154      -0.07265631       0.00321827       0.10259703       0.10462872      -0.17430018      -0.00052546      -0.00262719       0.84459943       0.15223000       0.17649000      -0.00089000       0.06579000       0.18516000       0.01064000      -0.03476000      -0.12667000       0.01849000
Mo       3.17185081       0.84241639       9.69023602      31.53874134       1.61775071      -1.03633550      -5.65977212      19.54705652       0.69352018      -0.13947808       0.01505233       0.53837277      -5.65977212      19.54705652       0.69352018       9.14344819      36.74529632      -3.13323361      -0.02283464      -0.27457067       0.29718065      -0.13947808       0.01505233       0.53837277      -0.02283464      -0.27457067       0.29718065       0.04100272       0.02611152      -0.12539004      -1.12827000      -0.08374000      -0.01394000      -0.19311000      -1.73087000      -0.00529000      -0.19202000      -0.02942000      -0.09057000
S        4.80447048       1.78714746      11.27870489     -13.57024129       4.39075199      -5.78987340      11.23470672      -2.04704450      -3.22956087       0.00640055       0.03613366      -0.33318750      11.23470672      -2.04704450      -3.22956087      -6.38816210      -9.58333906      -0.17199601      -0.09834192       0.10706756       0.08698576       0.00640055       0.03613366      -0.33318750      -0.09834192       0.10706756       0.08698576      -0.01039202      -0.00532378      -0.44648837       0.93313000      -0.01932000       0.00473000       0.01176000       0.75968000      -0.00049000       0.11037000       0.05673000       0.03227000
Se       4.88874091       1.84051233       8.00713087     -11.16191264       0.67899280      26.69526638       5.11191117      -3.36854123       0.55015910       0.46439638      -0.04780195      -0.11393029       5.11191117      -3.36854123       0.55015910      -8.08047011      -5.14165056      22.90325385       0.02987276       0.46250876       0.01048758       0.46439638      -0.04780195      -0.11393029       0.02987276       0.46250876       0.01048758       0.01201584       0.00116832       1.02348200       0.77226000      -0.15506000      -0.00830000      -0.03719000       0.88265000      -0.00456000       0.15068000      -0.01075000       0.07697000
Mo       1.58472565       3.69906891       9.77988133      34.05713250      -3.81215752      11.66998264      -3.70665675       4.58178051      -0.76058606       0.17931792       0.10348659       0.12225289      -3.70665675       4.58178051      -0.76058606       9.24593622      26.25685459      16.71925695       0.10006396       0.27901112      -0.13626664       0.17931792       0.10348659       0.12225289       0.10006396       0.27901112      -0.13626664       0.02937540       0.02670293       0.12120107      -2.26090000      -0.48011000       0.00518000      -0.27886000      -1.02161000      -0.02135000       0.19779000       0.04816000      -0.10921000
Se       3.09833014       4.69073419      11.55503129      33.28801112      -7.78514114     -36.54574316       1.02303071       4.10832509      -1.52014331      -0.49395824       0.01585272       0.25752883       1.02303071       4.10832509      -1.52014331       7.66098328     -18.20714632     -30.25947074      -0.06413448      -0.41443108      -0.09305580      -0.49395824       0.01585272       0.25752883      -0.06413448      -0.41443108      -0.09305580      -0.03254025       0.02490188      -0.96698935       0.74352000       0.00733000      -0.00037000       0.23572000       0.62024000      -0.00148000       0.35694000      -0.14580000       0.07807000
Se       3.09813818       4.69418947       8.03381331      15.65098453      -1.35099605      23.85468253       4.37651346       4.03560588      -2.27309459       0.49316747       0.01694373       0.04768422       4.37651346       4.03560588      -2.27309459       8.30607417     -11.75190140      19.48398678       0.00848358       0.30349734      -0.15533523       0.49316747       0.01694373       0.04768422       0.00848358       0.30349734      -0.15533523       0.00083234      -0.01640631       0.95537229       0.81353000      -0.11800000       0.00255000       0.00697000       0.83766000      -0.00819000      -0.29714000      -0.02104000       0.07133000
Mo      -0.02466686       6.48603995       9.71922197       2.17133020     -17.36043706      18.21036716     -18.58706064      -3.31652428       1.47155999       0.53146986       0.03775969      -0.14493663     -18.58706064      -3.31652428       1.47155999       3.51530190       1.50414021      18.97340262       0.02279649       0.43501570      -0.23923577       0.53146986       0.03775969      -0.14493663       0.02279649       0.43501570      -0.23923577      -0.00744619      -0.02876803       0.06697434      -1.27527000       0.26129000      -0.02043000       0.23811000      -1.21563000       0.01529000       0.02403000      -0.07232000      -0.08343000
S        1.49239290       7.39458656      11.33043811       8.30924011      12.87618472      -9.77442379       9.59856629       0.12811161       4.04250292      -0.02666194       0.00470774       0.13059134       9.59856629       0.12811161       4.04250292       4.33349282       3.47083499     -16.64836254       0.09597442      -0.03407660      -0.11175713      -0.02666194       0.00470774       0.13059134       0.09597442      -0.03407660      -0.11175713       0.00295704      -0.03197424      -0.48437322       0.68154000       0.11344000      -0.00850000       0.03154000       0.69591000      -0.00362000       0.06516000       0.11902000       0.03781000
S        1.57292012       7.42837151       8.20273809      10.26163570       8.75978811       8.63653776       6.68301310       0.07110386      -4.36185900       0.04071273      -0.11204226       0.09450180       6.68301310       0.07110386      -4.36185900       5.31793029      -5.85013206      16.70540217      -0.15300987       0.11647065      -0.01890268       0.04071273      -0.11204226       0.09450180      -0.15300987       0.11647065      -0.01890268       0.00070963       0.01039796       0.55308016       0.46873000      -0.11987000       0.00539000      -0.23781000       0.73008000       0.00985000       0.04911000       0.05099000       0.03146000
Mo       6.39034790       0.93513307       9.82614368       8.64408529     -23.70224057     -16.77538351     -22.88158056       6.48613258       3.16147363      -0.59208434      -0.02463510       0.14591059     -22.88158056       6.48613258       3.16147363      11.39533838     -13.80426233     -15.48583693      -0.00166933      -0.47205764      -0.39452088      -0.59208434      -0.02463510       0.14591059      -0.00166933      -0.47205764      -0.39452088       0.01562136       0.00370171      -0.05094147      -1.53602000       0.03373000      -0.01640000      -0.02831000      -1.20568000       0.01388000      -0.11234000       0.03203000      -0.08019000
Se       7.95722127       1.80999070      11.61924190       6.28513192       7.19128858     -23.31102474       7.35736470      -1.58522494       0.15566171      -0.38843060       0.04108278      -0.12852818       7.35736470      -1.58522494       0.15566171      -0.61426519      -4.71156076     -19.66504683      -0.06818395      -0.31683882       0.00750734      -0.38843060       0.04108278      -0.12852818      -0.06818395      -0.31683882       0.00750734       0.00435473       0.01436861      -1.06663732       0.46028000      -0.05756000      -0.00393000       0.01764000       0.64688000       0.00653000       0.14267000       0.16242000       0.03729000
S        7.99974041       1.81574950       8.26752459      11.74426340       9.59652219      16.30477899      12.83005620       0.03402014       1.71784288       0.07723335      -0.00998612       0.10654807      12.83005620       0.03402014       1.71784288       0.04492742      -3.19057101      13.47513366       0.10162410      -0.06190200       0.07784705       0.07723335      -0.00998612       0.10654807       0.10162410      -0.06190200       0.07784705      -0.03128780      -0.00412078       0.52073328       0.71717000      -0.00932000       0.00605000       0.04982000       0.45999000      -0.00612000      -0.07177000      -0.22395000       0.04347000
Mo       4.79928756       3.69561363       9.77191499     -24.56575811      -3.34122392      -7.72560023      -7.89892199     -11.71777449       0.16693480      -0.15287997      -0.03643027      -0.13630631      -7.89892199     -11.71777449       0.16693480      -9.36088781      30.44777857     -10.45329068      -0.05407464      -0.25489756       0.16919560      -0.15287997      -0.03643027      -0.13630631      -0.05407464      -0.25489756       0.16919560      -0.03096309       0.00383502      -0.03779978      -1.65325000       0.41207000       0.01077000       0.18588000      -1.23691000      -0.01366000      -0.04258000       0.15894000      -0.09332000
S        6.37028808       4.69284575      11.37986780       8.41162779       3.28842011     -10.76115809       1.37664354       0.52362704       1.48833085      -0.03812329      -0.08780914      -0.00699154       1.37664354       0.52362704       1.48833085       4.95959376     -23.34959242     -15.68178308       0.11373133      -0.05348681      -0.11958317      -0.03812329      -0.08780914      -0.00699154       0.11373133      -0.05348681      -0.11958317       0.01450955       0.01103710      -0.53500201       0.72715000      -0.06338000      -0.00113000      -0.10364000       0.60851000      -0.00311000       0.03799000      -0.24261000       0.02810000
S        6.51281837       4.61414216       8.19102853     -11.37033572       7.11588437      14.85400364       4.40797501      -2.07753098       1.16506836       0.10559027       0.18718862      -0.10359265       4.40797501      -2.07753098       1.16506836      -7.55878436     -12.75454082      12.38809678       0.03423890       0.16101653      -0.10239698       0.10559027       0.18718862      -0.10359265       0.03423890       0.16101653      -0.10239698      -0.01445192      -0.00987451       0.58627173       0.66255000       0.15479000      -0.00492000       0.11797000       0.59379000      -0.00429000       0.15729000      -0.02457000       0.03366000
Mo       3.21571367       6.46530827       9.75281497     -30.64475978       3.15535378       7.36831269     -10.74310719      -9.86853361      -0.24198089       0.09848297      -0.02447552      -0.41406062     -10.74310719      -9.86853361      -0.24198089     -17.03081939      23.91318555       6.96336359       0.04961252       0.28121268       0.44533173       0.09848297      -0.02447552      -0.41406062       0.04961252       0.28121268       0.44533173      -0.02120021      -0.01548882       0.08140078      -1.01606000       0.06187000       0.01300000      -0.01437000      -2.19983000       0.01291000       0.06969000      -0.11545000      -0.10605000
Se       4.85514792       7.31137190      11.37084568      -0.61905927      12.51165536      -9.09551824       9.64555307       3.68321225       1.13625658      -0.10640452       0.07885461       0.09286591       9.64555307       3.68321225       1.13625658       6.56932860       6.89588511     -13.12309897       0.02529626      -0.20965558      -0.03913331      -0.10640452       0.07885461       0.09286591       0.02529626      -0.20965558      -0.03913331       0.01142533      -0.01376706      -0.66482007       1.06921000       0.00164000       0.00440000      -0.10825000       1.31530000      -0.00297000      -0.13819000       0.14205000       0.08962000
S        4.83844740       7.47511377       8.23988235      -1.29042954       3.34535466       1.81300118       5.38998967       1.37015234      -0.47780010       0.04272258      -0.00970021       0.02671110       5.38998967       1.37015234      -0.47780010       3.37410540     -18.50018679       5.94559101       0.01669157       0.06368234      -0.08845754       0.04272258      -0.00970021       0.02671110       0.01669157       0.06368234      -0.08845754       0.00711137      -0.01037237       0.53625153       0.56421000       0.01497000       0.00469000      -0.03014000       0.72326000       0.01023000       0.04523000       0.28446000       0.03409000
27
Lattice="9.867879618721414 0.0 0.0 -4.933939809360707 8.545583749812744 0.0 0.0 0.0 20.459074813495107" Properties=species:S:1:pos:R:3:raman_tensor:R:27:born_effective_charge:R:9 susceptibility_tensor="_JSON [[-697.2923533419004, -1.013264529348832, 0.03334836779262584], [-1.013268236202722, -691.0536268095905, -0.029542527174850917], [0.03384838119509819, -0.028742258607302493, -37.94574884723836]]" pbc="T T T"
Mo       0.02151198       1.02300308      10.08743994      29.62042114      -1.33240490      50.10938269      -3.39283376      11.96491920      -2.01464581       0.85255502       0.02535015      -0.17317692      -3.39283376      11.96491920      -2.01464581      18.19544383       1.65099455      52.98945473      -0.15212670       0.92810923      -0.09561906       0.85255502       0.02535015      -0.17317692      -0.15212670       0.92810923      -0.09561906      -0.01194081       0.01202919       0.45545234      -2.45484000      -0.09689000      -0.01017000      -0.28057000      -1.94373000       0.04937000       0.03364000       0.27867000      -0.10031000
Se       1.56287477       1.94190003      11.87767066      23.64261409       4.20317947     -28.19892564       5.57072272       1.45836800      -3.81617707      -0.19319748      -0.09660195       0.02140186       5.57072272       1.45836800      -3.81617707       1.82332704      -9.42659763     -27.88038935      -0.01089991      -0.26659036       0.00435999      -0.19319748      -0.09660195       0.02140186      -0.01089991      -0.26659036       0.00435999       0.00180946      -0.00960255      -0.72471932       0.98336000       0.06811000       0.00715000       0.04264000       0.71135000       0.02653000       0.22975000       0.00178000       0.06967000
Se       1.71987274       1.96814859       8.44966796       1.29214005       3.80381025      19.75170206       4.69749467      -1.14392550      -0.37878255       0.05099399      -0.02848632      -0.06416831       4.69749467      -1.14392550      -0.37878255      -4.25644314      -6.33761088      23.16506174      -0.06255502       0.39955966      -0.07053767       0.05099399      -0.02848632      -0.06416831      -0.06255502       0.39955966      -0.07053767      -0.01944108       0.01602166       0.83781471       0.50305000      -0.00280000       0.01723000      -0.06322000       0.69436000       0.00622000       0.15069000      -0.00406000       0.04190000
Mo      -1.79881578       3.73834751      10.17506671     109.82467494      10.13495249      -3.55524602       0.53281309      35.63362944      -2.75687010      -0.04724184      -0.29758617       1.21545129       0.53281309      35.63362944      -2.75687010      51.98111475      78.21719521       4.66279049       0.32004833       0.28749306       0.66363353      -0.04724184      -0.29758617       1.21545129       0.32004833       0.28749306       0.66363353       0.06490358       0.04831095      -0.25950095      -1.71597000      -0.11195000      -0.00760000       0.41439000      -1.48872000       0.01714000      -0.10018000       0.12084000      -0.06848000
Se      -0.09058713       4.80052608      11.79468179      -3.18736055      -1.62286252      -4.98478355       3.55687584      -3.26820465      -0.27752125      -0.06100016       0.03745960      -0.33182992       3.55687584      -3.26820465      -0.27752125       1.62909308     -18.87478476      -3.41732109       0.00059348      -0.13201561       0.01687172      -0.06100016       0.03745960      -0.33182992       0.00059348      -0.13201561       0.01687172      -0.03908385       0.00880041      -0.52812042       1.11051000       0.13529000      -0.00516000       0.06679000       1.21765000      -0.01390000       0.16946000      -0.17755000       0.06026000
Se      -0.05733238       4.78996745       8.52121009      -3.52636997       2.07877626      16.57159782       3.76788151      -6.93678804      -0.52846141       0.64342445      -0.02279025      -0.18670565       3.76788151      -6.93678804      -0.52846141      -4.57317880       0.64069277      16.80474270      -0.08093734       0.42495327      -0.14905331       0.64342445      -0.02279025      -0.18670565      -0.08093734       0.42495327      -0.14905331       0.01414876      -0.00532216       0.78881139       0.88425000       0.04520000      -0.02369000       0.02759000       0.95101000      -0.01074000      -0.11934000      -0.19390000       0.04871000
W       -3.28333959       6.58917794      10.34005766       4.41753498      21.33657528     -37.59739654      28.91385302       0.39401762       0.58866183      -0.82369506       0.27218256      -0.23381493      28.91385302       0.39401762       0.58866183       4.70373767      63.67156182     -43.55708382      -0.03087038      -1.18223560       0.23978417      -0.82369506       0.27218256      -0.23381493      -0.03087038      -1.18223560       0.23978417      -0.02051300       0.01480903      -0.26904093      -1.46213000       0.02342000       0.10822000      -0.49910000      -1.80650000      -0.09003000      -0.08184000      -0.43068000       0.02324000
Se      -1.55280954       7.57201875      11.98453980     -16.31559412      11.41737245     -24.30067950       7.03110543      -7.11718849      -1.94267368      -0.11037731       0.18042976      -0.03597255       7.03110543      -7.11718849      -1.94267368     -15.69764552      -0.30301934     -20.76186992      -0.13675069      -0.10077714      -0.04426384      -0.11037731       0.18042976      -0.03597255      -0.13675069      -0.10077714      -0.04426384       0.03486784       0.00366612      -0.80946530       0.51759000      -0.06152000      -0.00490000       0.02315000       0.80288000      -0.00993000      -0.31343000      -0.03393000       0.05623000
Se      -1.77750116       7.60813519       8.61140251      37.90627385       1.32251814      19.74890200       4.99570764       9.31560074       2.05736153       0.26805749      -0.07527768       0.12142833       4.99570764       9.31560074       2.05736153      12.03518205     -11.03934506      17.79528741       0.27478424       0.24338243       0.01142545       0.26805749      -0.07527768       0.12142833       0.27478424       0.24338243       0.01142545      -0.02788523      -0.03135903       0.66862406       1.15647000       0.05693000       0.00468000       0.03955000       0.94859000      -0.00063000      -0.47171000       0.08834000       0.06910000
Mo       3.28156337       0.95600018      10.20920957     -34.33735873     -18.66587890      29.96109987      -9.46774323     -13.69787887       1.89243010       0.70623898      -0.18327231      -0.00871531      -9.46774323     -13.69787887       1.89243010      -6.16147061     -10.86514186      22.53025546       0.40137957       0.71053195      -0.03389938       0.70623898      -0.18327231      -0.00871531       0.40137957       0.71053195      -0.03389938       0.00477577      -0.00023194       0.05209435      -2.12370000       0.31348000       0.04164000       0.39712000      -2.53377000      -0.00867000       0.19923000       0.24080000      -0.10513000
Se       4.94153808       1.82644584      11.88882136      11.04674997      16.89289133     -10.95106353       9.17497573       6.36004264      -0.63405698      -0.29165867      -0.08139978       0.10398532       9.17497573       6.36004264      -0.63405698       5.67648110      13.67089447     -14.58200650      -0.13022076      -0.21503995      -0.03713352      -0.29165867      -0.08139978       0.10398532      -0.13022076      -0.21503995      -0.03713352      -0.02075987      -0.00431323      -0.70931349       0.90134000       0.09142000       0.01115000      -0.01414000       1.08737000      -0.01932000       0.26078000       0.16464000       0.05410000
Se       4.95012313       1.77730380       8.70583811      18.64560433      21.84197761      -7.81972950      15.57861227       3.07191436      -0.63643075      -0.09971430       0.02733412       0.15069888      15.57861227       3.07191436      -0.63643075       4.63665716      11.83782781      -9.06114760      -0.02978006      -0.06411007       0.27836441      -0.09971430       0.02733412       0.15069888      -0.02978006      -0.06411007       0.27836441       0.02147444       0.01000965       0.48858924       1.56782000       0.01382000       0.01139000      -0.08187000       1.50077000      -0.02008000      -0.14570000      -0.36674000       0.07582000
W        1.65109362       3.83801310      10.23683964      -9.82207680      -9.86120389     -26.70008918      -7.55216005      -3.50052738       1.05591965      -0.53917831       0.22084531      -0.19676296      -7.55216005      -3.50052738       1.05591965      -4.99889233       8.86345694     -22.43308729      -0.15033859      -0.56901828       0.00359834      -0.53917831       0.22084531      -0.19676296      -0.15033859      -0.56901828       0.00359834       0.00783841      -0.02266532      -0.20883065      -0.93229000      -0.26742000      -0.04595000      -0.21579000      -0.98142000       0.01455000       0.09576000      -0.00387000       0.05185000
Se       3.29705594       4.66277048      11.92839156       2.56829997      11.88271387     -12.77317562       8.84939293       9.06456275       1.07810617      -0.22254691      -0.00163809       0.18058278       8.84939293       9.06456275       1.07810617       8.61077567       8.53604797     -13.86016801       0.00235671      -0.32296036       0.23263585      -0.22254691      -0.00163809       0.18058278       0.00235671      -0.32296036       0.23263585       0.01696745      -0.03403689      -0.77676532       0.69117000      -0.14965000      -0.02611000      -0.06144000       0.53246000       0.00205000      -0.22423000       0.22602000       0.06065000
Se       3.38231442       4.80644680       8.49871132     -22.09857061       1.19057175      32.67833214       1.42120403       8.18332018       0.46711308       0.34517718       0.07837625       0.14265632       1.42120403       8.18332018       0.46711308       0.82638808     -14.09935607      35.32220291       0.04713410       0.27548506      -0.01646954       0.34517718       0.07837625       0.14265632       0.04713410       0.27548506      -0.01646954       0.00303208       0.04370864       0.78116952       0.75140000      -0.00016000      -0.00929000      -0.03019000       0.73527000      -0.00760000       0.16679000       0.13890000       0.03701000
Mo      -0.02417631       6.68065318      10.26032519       4.70080610     -15.36034289     -43.78338173     -24.57842863       6.79257261      -3.77984223      -0.75237704      -0.07072734       0.09378337     -24.57842863       6.79257261      -3.77984223       5.60564714      -3.59686485     -32.64205840      -0.22555457      -0.61673866      -0.35304876      -0.75237704      -0.07072734       0.09378337      -0.22555457      -0.61673866      -0.35304876       0.00036584      -0.01334078      -0.08078014      -2.04210000       0.11499000      -0.03937000      -0.32388000      -1.77787000      -0.00937000      -0.06048000       0.07245000      -0.08087000
Se       1.54698749       7.50471981      11.89257116      26.79993982      22.24705182       0.52949351      10.20350611       4.64140189       1.01089783       0.07312420      -0.04475020       0.09862662      10.20350611       4.64140189       1.01089783      11.40196294      13.38441087     -12.09377939       0.03890588       0.01956770       0.35533958       0.07312420      -0.04475020       0.09862662       0.03890588       0.01956770       0.35533958      -0.06035933       0.02573111      -0.65734593       0.81001000       0.08465000      -0.00444000      -0.05381000       0.95272000       0.00998000       0.45710000       0.08141000       0.07230000
Se       1.80779555       7.57724872       8.47335087     -37.07003343       8.46070881      34.82239013       3.53052650      -9.05604661       1.33309678       0.42785626      -0.05893028      -0.04967331       3.53052650      -9.05604661       1.33309678     -19.33611482       3.81211872      41.26569877      -0.22386611       0.53304319       0.21159699       0.42785626      -0.05893028      -0.04967331      -0.22386611       0.53304319       0.21159699       0.05463372      -0.01403449       0.86418226       0.56743000      -0.05170000      -0.02214000      -0.09548000       0.49275000       0.01509000       0.39254000       0.03075000       0.02728000
Mo       6.62292608       0.96034204      10.26279216      -6.23467245     -76.91049168      -1.35826882     -52.74932365      -0.61260657       0.04962634      -0.01735255       0.14038349       0.00537343     -52.74932365      -0.61260657       0.04962634      -9.41102453     -86.81389079     -11.07154556      -0.22642239      -0.15268895      -0.63065843      -0.01735255       0.14038349       0.00537343      -0.22642239      -0.15268895      -0.63065843      -0.01021100      -0.06405623      -0.17325514      -1.51291000      -0.03489000      -0.02973000      -0.51019000      -2.33096000       0.04928000      -0.17783000       0.34213000      -0.08626000
Se       8.32987190       1.87124601      11.91280031     -33.64916672       5.65642236     -32.79810936       7.13321059      -7.99560187       1.00655516      -0.30632242       0.19196301      -0.11568330       7.13321059      -7.99560187       1.00655516     -10.28406872       0.68693591     -26.70410184       0.10938399      -0.37421121       0.13266378      -0.30632242       0.19196301      -0.11568330       0.10938399      -0.37421121       0.13266378       0.01372138       0.01784802      -0.79866822       0.79777000      -0.15184000      -0.02466000       0.01111000       0.77187000       0.02886000      -0.63098000       0.15513000       0.04600000
Se       8.22073315       1.83256392       8.51943387     -21.18243052      16.76444330      14.67129055      10.04267031      -1.15001532       3.39847964       0.14518293      -0.01358093      -0.18067299      10.04267031      -1.15001532       3.39847964      -6.18253012      12.84056007      18.01884792       0.11166884       0.01911385       0.07472289       0.14518293      -0.01358093      -0.18067299       0.11166884       0.01911385       0.07472289       0.00560836      -0.03767425       0.70845708       1.01302000       0.13234000      -0.02777000       0.25314000       0.98684000       0.02379000       0.17854000      -0.32297000       0.05989000
Mo       4.97548358       3.75512291      10.20634789     -81.51748695     -14.30788733      11.52401980      -9.43229994     -20.16605107       3.83398089       0.29078877       0.01754196      -0.54026075      -9.43229994     -20.16605107       3.83398089     -41.79091388      53.56054939      13.34988962      -0.10792465       0.63839595       0.14914161       0.29078877       0.01754196      -0.54026075      -0.10792465       0.63839595       0.14914161      -0.04148170       0.02910632       0.23793404      -2.67438000       0.03988000       0.03858000       0.07793000      -1.37191000      -0.03051000      -0.04193000      -0.03328000      -0.09028000
Se       6.52414861       4.75010121      11.94408149      -0.63687733      -5.04655121     -27.75695409      -4.04981354      -4.14022404       0.32497675      -0.09492741      -0.11180691       0.04300621      -4.04981354      -4.14022404       0.32497675      -1.59576317     -42.44200230     -17.76993871       0.08283069      -0.21322364      -0.37958018      -0.09492741      -0.11180691       0.04300621       0.08283069      -0.21322364      -0.37958018       0.00708672      -0.02360957      -0.76417486       0.94414000       0.06865000       0.03259000       0.09043000       0.57364000       0.01598000       0.17068000      -0.40045000       0.04170000
Se       6.45270516       4.80940717       8.42795862      21.98908602      -6.44465763      39.24118108      -3.33240712       1.83825064       0.96792561       0.20943183       0.08815480      -0.06743440      -3.33240712       1.83825064       0.96792561       8.16951243     -33.12162175      34.02488173      -0.03460796       0.45432572      -0.33932165       0.20943183       0.08815480      -0.06743440      -0.03460796       0.45432572      -0.33932165      -0.02406283       0.03368301       0.93118564       0.65124000       0.06556000       0.02906000       0.08064000       0.55568000       0.00281000      -0.16983000       0.54351000       0.04563000
W        3.31136436       6.67769282      10.33472900      -9.48814238     -18.41274072     -40.73854763     -24.55939560     -13.05632909      -1.20428011      -0.88607722      -0.25941617      -0.09837161     -24.55939560     -13.05632909      -1.20428011     -13.02394195     -24.10737660     -31.66347228       0.23323608      -0.68331083      -0.56024375      -0.88607722      -0.25941617      -0.09837161       0.23323608      -0.68331083      -0.56024375       0.01167071      -0.02112272      -0.08159023      -0.88171000      -0.17496000      -0.02558000       0.72994000      -1.21566000      -0.04093000       0.03440000      -0.33747000       0.04742000
Se       4.99541670       7.64484370      11.81777263     -10.14424231      15.63705105       3.67686360      10.04652812      -2.51210023       1.95359771      -0.05333011       0.04480450       0.11823168      10.04652812      -2.51210023       1.95359771       1.18410297       4.08176219      -0.71231389       0.08124760       0.04441165       0.42957751      -0.05333011       0.04480450       0.11823168       0.08124760       0.04441165       0.42957751       0.02923388       0.04937022      -0.61713376       0.81116000      -0.08632000       0.01296000      -0.05093000       1.18769000      -0.02792000      -0.20061000      -0.20781000       0.07966000
Se       4.97400340       7.65717855       8.59137071      -3.20728270      -6.75469485      31.09035443       4.80344832      -4.26430175      -2.89145849       0.47605172       0.04742583      -0.02006393       4.80344832      -4.26430175      -2.89145849       0.46535496     -16.89885609       8.89224513      -0.09181705      -0.05186872      -0.13652995       0.47605172       0.04742583      -0.02006393      -0.09181705      -0.05186872      -0.13652995      -0.02357611      -0.03474296       0.62823639       1.08807000      -0.07370000       0.01741000       0.03550000       0.74327000      -0.01287000       0.12374000       0.02599000       0.04592000
27
Lattice="9.663791844775703 0.0 0.0 -4.831895922387852 8.368843737575759 0.0 -0.0 0.0 19.216450083336486" Properties=species:S:1:pos:R:3:raman_tensor:R:27:born_effective_charge:R:9 susceptibility_tensor="_JSON [[-563.3950751426149, 2.361787459718732, -0.08226285049505658], [2.3618303743908293, -558.1654898616193, -0.07422890232752842], [-0.08361447715602109, -0.07773368299777027, -32.873195480765744]]" pbc="T T T"
Mo       0.04561310       0.90047212       9.55062884      53.05547017     -32.69532072      11.90804269     -19.41941230      11.58350556       1.65179191       0.26582536      -0.07873462       0.45373544     -19.41941230      11.58350556       1.65179191      38.39218718      21.85091224      16.75034491       0.00124200       0.33768974       0.36349199       0.26582536      -0.07873462       0.45373544       0.00124200       0.33768974       0.36349199       0.03766400      -0.00689462       0.16318358      -1.35440000       0.09504000       0.01982000      -0.48429000      -1.49871000       0.01681000       0.06800000       0.26275000      -0.09988000
S        1.85138924       1.83602381      11.13703691     -18.05618597      13.72588850      -3.40509312      12.45172607      -7.68132653      -4.43739787       0.10086542       0.22372265      -0.28178557      12.45172607      -7.68132653      -4.43739787     -19.00775443       2.56930596      -3.10428137      -0.26647512      -0.18796361       0.23858863       0.10086542       0.22372265      -0.28178557      -0.26647512      -0.18796361       0.23858863       0.00036624       0.04158071      -0.66184404       0.27816000      -0.01707000       0.02271000      -0.10613000       0.39698000       0.00891000      -0.29814000      -0.07441000      -0.00234000
S        1.81592313       1.86917062       7.98722060      -7.36614809      12.54389573       3.51210303       9.27559521       0.26102479       2.63261373       0.00323033      -0.29275817      -0.08134578       9.27559521       0.26102479       2.63261373     -10.86365406     -11.22299392       6.55445980       0.18843870      -0.04109000      -0.09481762       0.00323033      -0.29275817      -0.08134578       0.18843870      -0.04109000      -0.09481762       0.02500909      -0.01996832       0.73445512       0.21646000      -0.11409000       0.00491000      -0.12821000       0.16393000      -0.01043000       0.25034000      -0.02870000       0.00951000
Mo      -1.64854625       3.71360193       9.57430513      31.87593786       8.66971386       3.98517413     -26.88981378      -6.07506478      -2.19469029      -0.07017085      -0.10964820       0.01733892     -26.88981378      -6.07506478      -2.19469029      26.88898647      39.10422972      -9.72065955       0.00875720      -0.47341959      -0.31528478      -0.07017085      -0.10964820       0.01733892       0.00875720      -0.47341959      -0.31528478       0.02018656       0.03648529      -0.08133201      -2.00906000      -0.04596000       0.00981000      -0.19512000      -1.25446000       0.01025000       0.18597000      -0.02220000      -0.12086000
S       -0.10833111       4.67002741      11.18970458      15.02872206       0.46136083     -11.62197199       5.87108292       9.49983537       2.20481604       0.04628212      -0.07835376      -0.04558953       5.87108292       9.49983537       2.20481604      13.34437985     -30.62986343      -8.23417746       0.25192221       0.08290697      -0.32325622       0.04628212      -0.07835376      -0.04558953       0.25192221       0.08290697      -0.32325622       0.00120398      -0.01138582      -0.71263449       0.35439000       0.04075000       0.00553000       0.05072000       0.27732000       0.01358000       0.40745000       0.07247000      -0.00082000
S       -0.04232741       4.64229233       8.03640930      -2.74600387      12.43979668      -0.36977795      12.73323635       2.86837414      -1.85530450      -0.38196201       0.15502559      -0.20702151      12.73323635       2.86837414      -1.85530450       4.79491975     -19.45808252      -2.67328780      -0.14561658      -0.30469366      -0.20102295      -0.38196201       0.15502559      -0.20702151      -0.14561658      -0.30469366      -0.20102295      -0.01279803       0.02979102       0.67530072       0.24496000       0.12210000      -0.01833000       0.12528000       0.44412000      -0.01499000      -0.23304000       0.03580000       0.01521000
W       -3.38677249       6.51697131       9.67016995      70.04811656     -17.10147629       8.33581598     -20.37592670      21.38192279      -7.88488216       0.50385293      -0.03687826       1.11691919     -20.37592670      21.38192279      -7.88488216      -2.19233530       7.46658115       6.32743378      -0.07937525       0.49028847      -0.14636125       0.50385293      -0.03687826       1.11691919      -0.07937525       0.49028847      -0.14636125       0.07014439      -0.02274826       0.09980208      -0.86432000      -0.60802000       0.02326000      -0.10595000      -0.97570000      -0.03933000       0.16003000      -0.23880000       0.04258000
S       -1.63424384       7.29935189      11.24275879       5.43025472      17.75830699      -3.28138862      13.97778616       1.85227461       3.11940619      -0.21654976      -0.17203202       0.16785566      13.97778616       1.85227461       3.11940619       2.80807797      21.87065422     -13.04368861       0.20914740      -0.20541012       0.14287953      -0.21654976      -0.17203202       0.16785566       0.20914740      -0.20541012       0.14287953       0.01110658      -0.02056002      -0.76215244       0.20188000      -0.11727000       0.00154000       0.08152000      -0.01404000      -0.00141000       0.13306000       0.39413000      -0.01019000
S       -1.63453375       7.35820439       8.13382032       0.39428217      12.63040786      -0.59270843      10.07760546       1.89805461      -0.35018749       0.04039602       0.24712107      -0.15244630      10.07760546       1.89805461      -0.35018749       1.41133322      -0.72150008       0.49471216      -0.11828113      -0.00871157       0.02807091       0.04039602       0.24712107      -0.15244630      -0.11828113      -0.00871157       0.02807091       0.00203870       0.01195309       0.55158039       0.34588000      -0.12940000      -0.00401000       0.06391000       0.29687000       0.00649000      -0.19941000      -0.21315000       0.00863000
W        3.40126818       0.99295461       9.62397702     -79.95870435      -7.86885781      -7.55935174     -33.32472495     -19.01053756       2.88721880      -0.67552182       0.01487223      -0.95193096     -33.32472495     -19.01053756       2.88721880     -11.46942977     -15.70116580      -6.16439546       0.05193224      -0.25967466      -1.02699969      -0.67552182       0.01487223      -0.95193096       0.05193224      -0.25967466      -1.02699969      -0.05190717      -0.03314183      -0.10346557      -0.29748000       0.12552000      -0.03432000       0.14356000      -0.21912000       0.03943000      -0.14148000       0.23617000       0.00893000
S        4.91935324       1.94532130      11.13471760       8.87375321       4.46187540      -8.20871533      10.22086198      -3.21534889       2.79509267       0.35790475       0.02836493       0.20238228      10.22086198      -3.21534889       2.79509267      -1.56044381     -24.19959602       3.87244488       0.05493479       0.18722327      -0.16560370       0.35790475       0.02836493       0.20238228       0.05493479       0.18722327      -0.16560370      -0.01309611       0.02967075      -0.61449098       0.38141000      -0.06039000      -0.01083000       0.09237000       0.57144000      -0.00622000      -0.07433000      -0.36459000       0.01199000
S        4.93220608       1.81795252       7.94653603       3.39013809      13.75370525      18.19613326      14.77929885      -8.08715644      -0.91410531      -0.09882126       0.02615078       0.00847218      14.77929885      -8.08715644      -0.91410531      -4.95935703       1.68197014      16.43530460      -0.11687875       0.03878894       0.15244783      -0.09882126       0.02615078       0.00847218      -0.11687875       0.03878894       0.15244783       0.00425700      -0.02598280       0.80649961       0.17274000      -0.23544000       0.00557000      -0.03048000       0.14171000       0.00662000       0.21812000      -0.02802000       0.00065000
W        1.59268953       3.74481598       9.52888531       6.81048790     -37.90252786      30.95702943     -32.94851261       4.28614235      -1.06678632       1.08225021       0.14825352       0.39279443     -32.94851261       4.28614235      -1.06678632     -15.24094972     -10.08283341      26.50341313      -0.01340453       0.94931418      -0.32282989       1.08225021       0.14825352       0.39279443      -0.01340453       0.94931418      -0.32282989      -0.00548662      -0.01902872       0.12423868      -0.18032000      -0.58398000       0.02111000       0.32758000      -0.31350000      -0.00732000       0.01964000      -0.07743000       0.07052000
S        3.16440864       4.64509483      11.20864561      -0.23697559       9.66905780      -9.53269904      11.39271285       5.97209835      -1.96485053      -0.34926893      -0.15467459       0.05888489      11.39271285       5.97209835      -1.96485053       5.37235003      14.44272627     -12.57714372       0.13561749      -0.16987271       0.32607964      -0.34926893      -0.15467459       0.05888489       0.13561749      -0.16987271       0.32607964      -0.00202551      -0.02899765      -0.74608219       0.34015000       0.10054000      -0.00611000       0.10672000       0.25446000      -0.01412000       0.05033000       0.14236000      -0.01777000
S        3.15136252       4.63465793       8.09178283       9.61276369      21.79701988      -9.15810715      18.77680673       6.63421225       0.27004479      -0.09279419       0.09636970       0.23732041      18.77680673       6.63421225       0.27004479       9.05774301      16.40402932      -3.82032340      -0.10358121      -0.08073285       0.46289438      -0.09279419       0.09636970       0.23732041      -0.10358121      -0.08073285       0.46289438       0.01581134       0.03246805       0.59759904       0.32949000      -0.07479000       0.01002000       0.03339000       0.59373000       0.01731000      -0.07900000      -0.01577000       0.01110000
W       -0.00270586       6.40603098       9.61276702     -40.06228584     -36.05806028       3.59510524       4.62993084     -13.26180190       0.96080008       0.15993845      -0.17501537      -0.03811266       4.62993084     -13.26180190       0.96080008     -11.08816191      48.10627425       2.95883569      -0.04194590       0.10685211       1.38194411       0.15993845      -0.17501537      -0.03811266      -0.04194590       0.10685211       1.38194411      -0.02146117       0.04475248       0.07507470      -0.30477000       0.32900000      -0.02484000      -0.12689000      -0.29068000      -0.04544000      -0.12014000      -0.29074000       0.03866000
S        1.53547989       7.50915282      11.21202794      -0.86657107       6.83813358     -14.93745610       6.93642672      -1.86878098      -0.63223133       0.10854925       0.29272154      -0.04653225       6.93642672      -1.86878098      -0.63223133      -1.33095163     -19.85524849      -6.84205431      -0.23440052       0.02730552      -0.20111757       0.10854925       0.29272154      -0.04653225      -0.23440052       0.02730552      -0.20111757      -0.00780864      -0.02370755      -0.72797140       0.45889000       0.13865000       0.00574000      -0.11928000       0.38863000       0.00666000       0.09016000      -0.09905000       0.00665000
S        1.49141300       7.47948497       7.95127129      11.17962365       5.50509066      19.98377584       3.25623679       1.12677041      -1.03329441       0.09663838      -0.23068564       0.02874586       3.25623679       1.12677041      -1.03329441       5.77349037     -18.72936286      17.90110148       0.29773494       0.16942122      -0.10721915       0.09663838      -0.23068564       0.02874586       0.29773494       0.16942122      -0.10721915      -0.00662064       0.02412262       0.81746895       0.02481000       0.13887000       0.00425000      -0.08417000       0.24812000      -0.00776000      -0.25900000       0.24758000      -0.01950000
W        6.38583365       0.91564428       9.61489306      37.22844021     -11.97108763      -1.45540957     -11.42042587      21.30883886       1.90567708      -0.22607422       0.17385335       0.95890507     -11.42042587      21.30883886       1.90567708       2.21823196      47.84219313     -10.77722018       0.09377157      -0.32607799       0.41069456      -0.22607422       0.17385335       0.95890507       0.09377157      -0.32607799       0.41069456       0.02780331       0.00877674       0.00058921      -0.26651000       0.87100000      -0.03208000      -0.07928000      -1.06323000       0.01965000      -0.01519000       0.17617000       0.02967000
S        8.18155945       1.92038872      11.02532348     -21.91047821       3.61423580       7.15011786       6.24183957      -6.43868005      -5.70048937      -0.02388495      -0.24634567      -0.15136670       6.24183957      -6.43868005      -5.70048937     -15.74611471     -26.68402790      10.99019949      -0.24609432       0.22440569      -0.23279073      -0.02388495      -0.24634567      -0.15136670      -0.24609432       0.22440569      -0.23279073      -0.00557014      -0.00636872      -0.50932536       0.61894000      -0.06151000      -0.00477000      -0.00531000       0.87331000       0.00837000      -0.20033000      -0.11801000       0.02487000
S        8.06366119       1.72691960       8.05235455       1.24554563      14.54351390      -3.60280559      15.76595064       0.47954733       4.20251349      -0.07779904       0.16748812      -0.05625046      15.76595064       0.47954733       4.20251349     -10.40524185       7.13611629       2.34318894       0.06176378       0.18548854       0.19054682      -0.07779904       0.16748812      -0.05625046       0.06176378       0.18548854       0.19054682      -0.05214802      -0.01277644       0.64594223       0.44604000       0.08414000       0.00122000       0.17626000       0.45177000       0.01593000      -0.21143000      -0.37301000       0.00720000
W        4.87354687       3.70799693       9.58551513     -21.52510009     -41.86023054      15.93610711      -3.62611541      -6.24367161      -0.29723290       0.55417258      -0.04120836      -0.65091826      -3.62611541      -6.24367161      -0.29723290      -0.23591471      26.63310376       3.45296104       0.05460461       0.23907757       0.50463349       0.55417258      -0.04120836      -0.65091826       0.05460461       0.23907757       0.50463349      -0.02604676      -0.01118938       0.08285719      -0.04890000       0.04966000      -0.02856000      -0.15483000      -0.55574000       0.00243000      -0.03551000       0.05534000       0.01479000
S        6.47271114       4.64122931      11.24565793     -22.31881619       8.88890816     -10.88329748       5.05005031      -3.19249273      -3.37777209      -0.01134486       0.02776070      -0.11200438       5.05005031      -3.19249273      -3.37777209     -10.75300584     -19.29387922     -15.11546344      -0.33269046      -0.04534860      -0.20859080      -0.01134486       0.02776070      -0.11200438      -0.33269046      -0.04534860      -0.20859080       0.00287520      -0.00204304      -0.77122920       0.39987000       0.05943000      -0.00265000      -0.05585000       0.20416000       0.00478000      -0.39883000      -0.02925000      -0.00218000
S        6.38467400       4.66616189       8.13913541      -8.47250113      20.47778191      -9.49571096      11.88923626      -0.23273910       3.20554432      -0.42474122      -0.09955114      -0.02846062      11.88923626      -0.23273910       3.20554432      -2.08219930     -15.55407213      -3.90833024       0.37326206      -0.18468334       0.04794051      -0.42474122      -0.09955114      -0.02846062       0.37326206      -0.18468334       0.04794051       0.00657863       0.02118204       0.55011311       0.54164000       0.15427000       0.01602000      -0.15600000       0.62828000       0.00651000       0.09072000       0.36991000       0.02584000
Mo       3.18305976       6.65371396       9.63499375       1.56845884     -39.56793871     -16.08729350     -55.61688365      -0.49424533       0.14474883      -0.42336337      -0.02746223      -0.26741507     -55.61688365      -0.49424533       0.14474883       6.91267881     -40.62934592      -6.18664414      -0.08866737      -0.42709733      -1.51221599      -0.42336337      -0.02746223      -0.26741507      -0.08866737      -0.42709733      -1.51221599      -0.00556640      -0.05197161      -0.05874184      -1.35957000      -0.23130000       0.02319000       0.56336000      -1.12830000      -0.01875000       0.16505000       0.12223000      -0.09195000
S        4.69988853       7.46866153      11.21801949       0.85781826      19.94618624      -3.14829079      15.15120618      -1.13582135       2.95486323       0.12049242      -0.00018082      -0.06271720      15.15120618      -1.13582135       2.95486323       9.06512969       4.73000822      -8.10917751       0.20959833       0.11623517       0.37269869       0.12049242      -0.00018082      -0.06271720       0.20959833       0.11623517       0.37269869       0.00451842       0.00688900      -0.75369963       0.62780000       0.04752000       0.00147000       0.06793000       0.61363000      -0.01610000       0.19223000      -0.10730000       0.01950000
S        4.90060548       7.43918696       8.11410618     -32.87125265      17.23080251     -10.43022690      16.07000764     -12.63410916       2.44310360      -0.36119389       0.13454351      -0.50603713      16.07000764     -12.63410916       2.44310360      -7.85411885      -8.78963983      -4.64435494      -0.19428807      -0.43778280       0.21266859      -0.36119389       0.13454351      -0.50603713      -0.19428807      -0.43778280       0.21266859      -0.02298342       0.00604651       0.57901950       0.70180000      -0.07729000      -0.00966000      -0.00079000       0.76502000      -0.00186000       0.23473000      -0.03449000       0.01918000
27
Lattice="9.732674841987084 0.0 0.0 -4.866337420993542 8.428496413160813 0.0 -0.0 0.0 19.99772699783086" Properties=species:S:1:pos:R:3:raman_tensor:R:27:born_effective_charge:R:9 susceptibility_tensor="_JSON [[-662.3652157363598, -5.597695839365776, 0.050427528292979376], [-5.5977038024796615, -663.8064907876611, 0.027443762391503992], [0.04881662951683558, 0.024660849902862696, -36.417798023015266]]" pbc="T T T"
Mo       0.00652089       0.99117561       9.98144201      -3.52757403     -13.82904394      25.39363923     -27.88242311       3.23131612      -2.67507348       0.77207015       0.02766067      -0.06507067     -27.88242311       3.23131612      -2.67507348      21.64567723     -16.14612115      21.13680558       0.00865908       0.64525643      -0.71502393       0.77207015       0.02766067      -0.06507067       0.00865908       0.64525643      -0.71502393       0.00511794      -0.02189383       0.06361304      -1.69320000       0.42391000      -0.00395000      -0.22987000      -1.15734000       0.03466000       0.05261000       0.01468000      -0.09637000
Se       1.67888641       1.85981684      11.70938110      -5.33175297       1.50405732     -26.16719724       4.88371778      -0.48941808      -0.49713648      -0.47589669      -0.03764677       0.10041186       4.88371778      -0.48941808      -0.49713648      -2.67962911     -11.13535302     -24.69023771       0.02605863      -0.01871570      -0.04635653      -0.47589669      -0.03764677       0.10041186       0.02605863      -0.01871570      -0.04635653       0.00026445      -0.01705937      -0.75231458       1.16646000       0.12685000      -0.00308000       0.03013000       0.75598000       0.00635000      -0.25213000       0.21996000       0.06295000
Se       1.73027493       1.74944830       8.28708065     -18.23862489      10.90044019      28.29591919       6.63227692      -4.40570153       2.45895354       0.48841298      -0.06251382      -0.13942395       6.63227692      -4.40570153       2.45895354      -7.30949241       1.44337790      28.48714113      -0.08396882       0.31596504       0.25136752       0.48841298      -0.06251382      -0.13942395      -0.08396882       0.31596504       0.25136752       0.01661321       0.04746520       0.78015565       0.91833000      -0.01202000       0.00612000      -0.05611000       0.80702000       0.00483000       0.38077000      -0.23099000       0.05539000
Mo      -1.76832969       3.75029160       9.89472388      29.64144418       6.32771038      23.60788445       0.61289900      19.87816220      -1.29011785       0.56848558      -0.08678534       1.22390435       0.61289900      19.87816220      -1.29011785      -8.00738719      36.10852694      13.09071528      -0.11184549       0.45343566       0.15803061       0.56848558      -0.08678534       1.22390435      -0.11184549       0.45343566       0.15803061       0.05827923       0.00962133       0.03330283      -1.70180000      -0.19259000      -0.01118000      -0.24984000      -2.14229000      -0.01388000      -0.16386000      -0.20757000      -0.12050000
Se      -0.05245912       4.65251055      11.66675199     -22.05905503      11.71262407     -22.46661729       7.65291296       9.82393727      -8.53019917      -0.30652774      -0.30272249      -0.33004604       7.65291296       9.82393727      -8.53019917      -0.19032046       3.90214973     -23.57788308       0.01135809      -0.35051528      -0.16767125      -0.30652774      -0.30272249      -0.33004604       0.01135809      -0.35051528      -0.16767125      -0.01853445      -0.05258597      -0.74917107       1.04307000       0.08987000       0.00096000       0.12246000       1.02975000      -0.00439000       0.13216000       0.16698000       0.06960000
Se      -0.01099792       4.69562630       8.28231164     -16.55982260       2.08974399      25.72074634       1.21748515       5.30799510       3.92703385       0.33311682       0.22213589      -0.02655272       1.21748515       5.30799510       3.92703385      -0.87238872      -9.02439872      24.50369072      -0.09150647       0.39993856      -0.13910123       0.33311682       0.22213589      -0.02655272      -0.09150647       0.39993856      -0.13910123       0.01564303      -0.02400153       0.77641735       0.95440000      -0.07714000      -0.01072000       0.02519000       0.79997000      -0.00452000      -0.02648000       0.17284000       0.06072000
Mo      -3.18667240       6.60975147      10.02348717     -39.68600179     -23.71737060     -12.53705280     -27.06436676     -24.54518845       4.59230168      -0.27969658       0.02032635      -0.43474560     -27.06436676     -24.54518845       4.59230168     -11.44364357     -17.99599570      -7.25577874       0.05020645      -0.29549453      -0.15122239      -0.27969658       0.02032635      -0.43474560       0.05020645      -0.29549453      -0.15122239      -0.03847166      -0.03604403       0.17607178      -1.75039000       0.33351000      -0.00448000      -0.24797000      -1.45561000      -0.02558000      -0.36573000       0.09439000      -0.09824000
S       -1.56842055       7.54194706      11.63716466      17.32141520      -3.44968336     -13.37492825       5.48522462       4.89160872       2.98281477       0.02370323       0.09256924       0.32666039       5.48522462       4.89160872       2.98281477       6.00384136     -24.77737214     -13.43067305      -0.03682425      -0.09552507      -0.06010340       0.02370323       0.09256924       0.32666039      -0.03682425      -0.09552507      -0.06010340       0.01702032       0.03135162      -0.56547581       0.55444000      -0.05589000       0.00766000      -0.08460000       0.53826000       0.01058000       0.12373000      -0.10723000       0.03073000
S       -1.56073174       7.45805140       8.46577256      16.69948721       8.99309297       5.14487599      11.57181661       3.94029167      -5.30205636      -0.04130298      -0.05483374       0.18881566      11.57181661       3.94029167      -5.30205636       8.46947483      -3.49491667       9.58125164       0.06821474      -0.07390178      -0.02756934      -0.04130298      -0.05483374       0.18881566       0.06821474      -0.07390178      -0.02756934       0.00934120      -0.00584685       0.43845052       0.63311000      -0.01539000       0.01585000      -0.10244000       0.78618000       0.00148000       0.03048000      -0.17488000       0.02771000
Mo       3.34745619       0.86474816      10.00119934     -36.56935791       1.64694423       9.07679393     -13.68076700      -1.43247535      -0.97611274       0.20772166       0.02213574      -0.46575351     -13.68076700      -1.43247535      -0.97611274     -33.58853766      34.32956869       0.24523432       0.00365315       0.13192252       0.20067569       0.20772166       0.02213574      -0.46575351       0.00365315       0.13192252       0.20067569      -0.05293346       0.04805606      -0.04348609      -1.82394000      -0.24537000       0.03333000       0.00004000      -1.09425000       0.02475000       0.12229000      -0.00827000      -0.08856000
Se       4.92074307       1.89611971      11.73634061     -19.50391624      -7.64161666     -37.95463280      -2.10358671       0.38363582      -0.88158181      -0.39693676       0.01457036      -0.15991819      -2.10358671       0.38363582      -0.88158181      -1.84272890     -20.41564544     -29.35157345       0.18744641      -0.33613953       0.09980396      -0.39693676       0.01457036      -0.15991819       0.18744641      -0.33613953       0.09980396      -0.01902961       0.02806917      -0.82809627       1.05487000      -0.04591000      -0.00398000      -0.02377000       0.63549000       0.00327000      -0.32349000      -0.26255000       0.06529000
Se       4.92570674       1.83879426       8.23442688      -5.92017615      -4.17380550      37.64945667      -2.18033723      -1.57392935      -0.51924286       0.53456551      -0.09486917      -0.02459521      -2.18033723      -1.57392935      -0.51924286      -3.25527189     -22.57368589      30.44921113      -0.15207413       0.45787877      -0.14132211       0.53456551      -0.09486917      -0.02459521      -0.15207413       0.45787877      -0.14132211       0.01163182       0.00745086       0.85515184       0.97158000      -0.12646000      -0.00108000      -0.01087000       0.61142000       0.01714000       0.29085000       0.21846000       0.05179000
Mo       1.53153371       3.67077564      10.04577499      64.85205469     -13.57652213     -23.79236270      -3.52400706      19.27936275       4.95709562      -0.97076128       0.15574133       0.75722015      -3.52400706      19.27936275       4.95709562      22.98007778      41.43876011     -21.22144920       0.12857480      -0.84050073       0.61739367      -0.97076128       0.15574133       0.75722015       0.12857480      -0.84050073       0.61739367       0.05049372       0.02576029      -0.00469477      -1.92597000      -0.48863000      -0.00272000       0.23987000      -1.63640000       0.00122000      -0.02528000      -0.12991000      -0.13737000
Se       3.26443647       4.69825413      11.73789784     -20.33565697      -0.52130044     -30.84328667       1.38352975      -6.24657301      -3.13558395      -0.28523424      -0.02701495      -0.21289293       1.38352975      -6.24657301      -3.13558395     -10.43539270     -10.85779386     -26.34608171       0.00154790      -0.42117227      -0.24558541      -0.28523424      -0.02701495      -0.21289293       0.00154790      -0.42117227      -0.24558541       0.00548672      -0.02177146      -0.81877909       0.73986000      -0.04419000       0.01503000       0.10591000       0.90968000      -0.00312000      -0.06026000      -0.06187000       0.05769000
Se       3.12691377       4.68307115       8.25214035       3.11870049       3.09277829      31.47924207       4.99473940      -0.49861852       3.07509828       0.44295577       0.11553582      -0.12913300       4.99473940      -0.49861852       3.07509828       3.41167787       0.21092718      28.69862077       0.05942725       0.40296052      -0.03131476       0.44295577       0.11553582      -0.12913300       0.05942725       0.40296052      -0.03131476      -0.03329727      -0.03927615       0.83795595       0.86708000       0.05672000       0.00175000       0.16943000       0.78244000      -0.00495000      -0.28068000       0.04802000       0.05949000
Mo       0.09343368       6.55291264      10.02163796     -63.16152960     -21.66451885       8.85809900     -31.67748660     -41.53256782      -0.35202995       0.33095167       0.04158117      -0.91226342     -31.67748660     -41.53256782      -0.35202995     -23.49430368     -10.72640710       3.93564031      -0.08168835       0.17248472      -0.30088186       0.33095167       0.04158117      -0.91226342      -0.08168835       0.17248472      -0.30088186      -0.04214900      -0.03221789      -0.03780425      -1.39443000       0.14685000      -0.00862000      -0.06226000      -1.83101000      -0.02434000       0.07710000       0.10045000      -0.08863000
S        1.63187759       7.48997458      11.65497545       3.00873541      -0.96042644     -19.24985850       8.68648256       0.13094330       5.93850062      -0.04008706       0.05143011       0.09163179       8.68648256       0.13094330       5.93850062       4.12875453     -25.34763777      -9.46526997       0.03163837       0.28156177      -0.30126847      -0.04008706       0.05143011       0.09163179       0.03163837       0.28156177      -0.30126847       0.01357496      -0.03124097      -0.55177758       0.84237000       0.04190000      -0.01043000      -0.09180000       0.58289000       0.00386000      -0.03168000       0.06995000       0.03026000
S        1.63314284       7.50768805       8.46908167       4.63260347      -2.21036286      19.70000313       9.59253555       1.16412967      -3.72183039      -0.19636881      -0.15964774       0.26005354       9.59253555       1.16412967      -3.72183039       4.19406515     -26.62543536       7.66159365      -0.12706585      -0.06994182      -0.16631736      -0.19636881      -0.15964774       0.26005354      -0.12706585      -0.06994182      -0.16631736       0.00937910       0.00620369       0.45643034       0.75521000       0.03506000      -0.00189000      -0.10214000       0.95913000      -0.01567000       0.03783000       0.16057000       0.03433000
Mo       6.50716907       0.80333498      10.07477836      17.07830610      31.10754202     -22.33266964      27.70146746      13.21975791       1.44406419      -0.68450427      -0.01223885       0.18142676      27.70146746      13.21975791       1.44406419      18.18079836     125.16600947     -17.81207665       0.09099297      -1.08078143       1.48614574      -0.68450427      -0.01223885       0.18142676       0.09099297      -1.08078143       1.48614574       0.01295586       0.09015300       0.06870698      -2.23106000       0.12271000      -0.02293000      -0.15977000      -1.18396000       0.04619000      -0.07958000       0.07994000      -0.07592000
Se       8.04571031       2.09661281      11.72972239      22.37773644     -22.60398535     -40.95256274      -7.82364388      -8.35014937      -6.26997385      -0.47855648       0.09259369       0.02522503      -7.82364388      -8.35014937      -6.26997385      -8.57656540     -46.75032921     -30.43321757      -0.29361382      -0.39819856      -0.05702786      -0.47855648       0.09259369       0.02522503      -0.29361382      -0.39819856      -0.05702786       0.01129955       0.04057368      -0.82915354       0.90242000       0.06704000      -0.00656000       0.12270000       0.88897000       0.01733000       0.25968000      -0.51766000       0.06242000
Se       8.14955795       1.85066812       8.23870925      -5.43181923       1.04724932      31.93671522       4.14421017      -9.16894109       4.60480645       0.37045304      -0.12583313      -0.30700849       4.14421017      -9.16894109       4.60480645     -12.89023945      -9.87788348      32.96247173       0.37569448       0.26267527      -0.09624514       0.37045304      -0.12583313      -0.30700849       0.37569448       0.26267527      -0.09624514      -0.03171361       0.00611803       0.82869807       0.93976000       0.15129000       0.00416000      -0.00038000       0.71125000       0.01863000       0.02212000      -0.00139000       0.05605000
Mo       4.77047057       3.75184882       9.93686636      48.95379054       7.49313401      -1.19984410       2.04341859      15.15269293      -1.70410565       0.21593538      -0.00349481       0.42296079       2.04341859      15.15269293      -1.70410565      31.01205367      27.23115776       4.02214601      -0.04289752       0.18922055      -0.24051577       0.21593538      -0.00349481       0.42296079      -0.04289752       0.18922055      -0.24051577       0.04801845      -0.00413868      -0.05996764      -1.84135000      -0.05300000       0.01178000       0.62376000      -1.88336000      -0.00633000       0.09845000       0.07323000      -0.12690000
S        6.40088826       4.66710957      11.46470166       4.62466186      16.07126284      -5.49461481      13.76146744      -1.26114982       2.40294888      -0.05092050      -0.02966407      -0.14974070      13.76146744      -1.26114982       2.40294888      -0.76535723       3.53561889      -7.57766581       0.06240215       0.13116013      -0.06419938      -0.05092050      -0.02966407      -0.14974070       0.06240215       0.13116013      -0.06419938      -0.02123393      -0.04484573      -0.38808605       0.98163000      -0.14663000       0.00079000       0.08452000       0.86318000      -0.02751000       0.19671000       0.17605000       0.05107000
Se       6.45091421       4.74224582       8.29058441     -16.83895161      12.81502426      10.44276028      10.05034756      -3.80160416       4.20325467       0.08778310       0.20810404      -0.29376666      10.05034756      -3.80160416       4.20325467      -7.66885615       1.39804066      13.01431990      -0.04342796       0.28900754       0.19202134       0.08778310       0.20810404      -0.29376666      -0.04342796       0.28900754       0.19202134      -0.01295012      -0.01134835       0.75014201       0.95480000      -0.08477000      -0.01101000       0.20269000       1.10110000      -0.01059000       0.02842000       0.01659000       0.06305000
Mo       3.22044478       6.56585710      10.02251390      25.46417540      -0.97709115      12.90000827     -19.70624340       4.61826371       1.83230278       0.32078329      -0.01888054      -0.11470295     -19.70624340       4.61826371       1.83230278       5.16033105      -1.67016033      10.50362476       0.04305005       0.40034105      -0.19079412       0.32078329      -0.01888054      -0.11470295       0.04305005       0.40034105      -0.19079412      -0.01168912      -0.01807651      -0.02736451      -1.45934000      -0.20802000       0.00742000      -0.27886000      -2.13243000      -0.04497000       0.14928000      -0.25057000      -0.10394000
Se       4.93699664       7.53513419      11.73419942      -9.73160193       3.40031578     -17.07091887       9.55043337      -3.88642800      -1.35331440      -0.37914531       0.00438456      -0.08891549       9.55043337      -3.88642800      -1.35331440      -6.73869942       0.28520367     -26.77769307      -0.10231826      -0.52250465       0.15623547      -0.37914531       0.00438456      -0.08891549      -0.10231826      -0.52250465       0.15623547      -0.01487250       0.02236000      -0.85634700       0.81929000       0.15921000      -0.00073000       0.05885000       0.91228000       0.00135000      -0.12885000       0.11553000       0.06887000
S        4.74643087       7.59975915       8.46908167      25.13947564      -2.26920230       3.44834570       5.87362635       6.27472289      -5.51196811      -0.09136215      -0.05069460       0.32112283       5.87362635       6.27472289      -5.51196811      14.24378397     -19.82464802       9.02665575       0.02327285      -0.00520521       0.04500303      -0.09136215      -0.05069460       0.32112283       0.02327285      -0.00520521       0.04500303       0.01898649       0.01121245       0.42207498       0.72279000       0.04110000      -0.00148000      -0.08487000       0.84167000      -0.00580000      -0.26447000       0.22526000       0.02900000
27
Lattice="9.37224166183332 0.0 0.0 -4.68612083091666 8.116361279147656 0.0 -0.0 0.0 19.182167009274252" Properties=species:S:1:pos:R:3:raman_tensor:R:27:born_effective_charge:R:9 susceptibility_tensor="_JSON [[-551.151799865174, 2.7963267006771826, -0.11833827148938288], [2.796391377376409, -536.0472877120334, 0.19993948112118043], [-0.1251693849821914, 0.20314091967481332, -31.602673873264433]]" pbc="T T T"
Mo      -0.06626175       0.89851681       9.70514369      97.56642005     -36.13510397     -15.41817017     -22.52265453      33.79021094       4.91468017      -0.55833998      -0.04507331       0.61946759     -22.52265453      33.79021094       4.91468017      31.66841073       3.97537896     -19.29934594       0.10028937      -0.54380066      -0.18829533      -0.55833998      -0.04507331       0.61946759       0.10028937      -0.54380066      -0.18829533       0.03550485      -0.01970999      -0.01044893      -1.01725000       0.67293000       0.02531000       0.21289000      -1.21946000       0.02261000      -0.49015000       0.11440000      -0.08341000
S        1.52936239       1.78475598      11.18652020       4.78662928       7.40505546     -12.69794537       5.25933099       2.54467536       2.15562196      -0.14223916       0.14451641       0.02133259       5.25933099       2.54467536       2.15562196       5.44058410     -10.66806934     -12.14794213       0.20990502      -0.20016239       0.17437266      -0.14223916       0.14451641       0.02133259       0.20990502      -0.20016239       0.17437266       0.00455379       0.04643223      -0.60752835       0.51295000      -0.12102000       0.00111000      -0.11311000       0.61783000       0.00513000      -0.10910000       0.02457000       0.05705000
S        1.56300874       1.67182047       8.23220219     -19.14816843      17.80235692     -12.25977741      12.76449783      -2.79800037       2.89610996       0.11610621      -0.01226804      -0.06813028      12.76449783      -2.79800037       2.89610996      -2.73760605       4.73925470     -18.87717856      -0.03283898      -0.30253654      -0.11434732       0.11610621      -0.01226804      -0.06813028      -0.03283898      -0.30253654      -0.11434732      -0.00987883      -0.02541603       0.38315555       1.21815000      -0.02890000       0.02195000      -0.07434000       0.71940000      -0.00757000       0.55551000      -0.60638000       0.07155000
Mo      -1.59553042       3.64130333       9.61573250      26.62873413     -34.33715044      -7.43286750     -16.51042298      10.16249059       3.14900815      -0.30044873       0.15912675       0.29972529     -16.51042298      10.16249059       3.14900815      -0.80115910      -9.06814666      -5.43498131       0.02556203      -0.00412156      -0.41842116      -0.30044873       0.15912675       0.29972529       0.02556203      -0.00412156      -0.41842116       0.00332973      -0.02697636      -0.03111126      -1.10656000      -0.39348000       0.03637000      -0.18337000      -1.65776000       0.03640000       0.22998000      -0.00878000      -0.08101000
S        0.04517420       4.46821621      11.32560427     -25.55239550      14.50621853     -35.27840622       5.44895861      -4.53802731       1.81936474      -0.14155051       0.07695216      -0.20903086       5.44895861      -4.53802731       1.81936474      -5.34325277       9.17384906     -41.49287140       0.06124265      -0.55349754       0.17522390      -0.14155051       0.07695216      -0.20903086       0.06124265      -0.55349754       0.17522390       0.01628747       0.02096388      -0.85756761       0.07732000       0.00600000      -0.00351000       0.01630000       0.35071000       0.00809000      -0.25478000      -0.14511000       0.02730000
S       -0.11471624       4.60458233       7.97352832       1.50957700      -1.53502004      11.76788846       4.01427428       0.79190446      -2.71411228      -0.12886553      -0.01768205      -0.20832245       4.01427428       0.79190446      -2.71411228       8.75319265     -25.71337787      12.34105628      -0.00254941       0.07607313      -0.19038683      -0.12886553      -0.01768205      -0.20832245      -0.00254941       0.07607313      -0.19038683      -0.03559623      -0.01028110       0.63269835       0.58620000       0.09437000      -0.01061000       0.14781000       0.48921000      -0.00179000      -0.30753000       0.32624000       0.05611000
W       -3.09499536       6.29533472       9.62519846     -20.21816902      16.70580663      12.76645347       0.12568493      -9.13994957       0.90891254       0.14264680      -0.09793405      -0.35624761       0.12568493      -9.13994957       0.90891254      -7.74342276      36.41697884       0.52947979      -0.00106161      -0.05150753       0.12746316       0.14264680      -0.09793405      -0.35624761      -0.00106161      -0.05150753       0.12746316       0.00724298       0.02323023       0.02829827      -1.37563000      -0.27293000       0.18262000       0.14413000      -0.73926000       0.05718000       0.32290000      -0.02825000      -0.16977000
S       -1.50424479       7.14277282      11.20189068       9.91287242      16.47417897     -10.10161889      11.41107428      -0.18544934       1.78956957      -0.08636223      -0.01701795       0.01898717      11.41107428      -0.18544934       1.78956957       1.67230565       3.05989097     -14.93813189       0.03738387       0.04747942       0.05011493      -0.08636223      -0.01701795       0.01898717       0.03738387       0.04747942       0.05011493       0.02417439      -0.01590342      -0.67481683       0.34657000      -0.17823000       0.00958000      -0.06281000       0.21340000       0.00555000       0.13911000       0.24271000       0.03159000
S       -1.66563479       7.18447929       8.01617202      31.53461729      17.88909503      13.00442707      13.54606244       5.66528635      -6.52321501      -0.31188522       0.01074231       0.16177334      13.54606244       5.66528635      -6.52321501      11.41870966      -1.91121677      18.25431247       0.00848356      -0.35486464       0.09497222      -0.31188522       0.01074231       0.16177334       0.00848356      -0.35486464       0.09497222      -0.04606062      -0.01468562       0.60451165       0.42501000       0.12511000      -0.00374000       0.22399000       0.47697000       0.01556000      -0.72327000      -0.13549000       0.08225000
Mo       3.24429517       0.83394206       9.60954682    -119.03344122      18.94766255       3.68370404      15.83286333     -42.69212718      -6.30677796       0.27100572      -0.18665811      -1.44021127      15.83286333     -42.69212718      -6.30677796     -54.65641034      92.39852394       4.72157664      -0.20082082       0.11333310       0.71464559       0.27100572      -0.18665811      -1.44021127      -0.20082082       0.11333310       0.71464559      -0.06220107       0.03384058      -0.09121340      -1.38534000       0.26891000      -0.01008000      -0.33064000      -1.50094000      -0.04877000      -0.02599000      -0.01534000      -0.09008000
S        4.67412436       1.97379409      11.03365894      33.62135467      -4.26930219      12.03958670      -4.17075959      15.97002718       4.75638291       0.44443273       0.11890714       0.42649329      -4.17075959      15.97002718       4.75638291      15.58385554     -49.68139501      14.69843973       0.01438698       0.21175634      -0.42380082       0.44443273       0.11890714       0.42649329       0.01438698       0.21175634      -0.42380082       0.00611435      -0.00553829      -0.43670864       0.68676000      -0.03894000      -0.02301000       0.09288000       0.73808000      -0.00949000       0.02159000      -0.53166000       0.06265000
S        4.54722421       1.79862690       7.93182184      39.61983070       6.20485000      11.53788796       1.93421713      11.97818504      -3.38494106      -0.18879409      -0.20827394       0.67151532       1.93421713      11.97818504      -3.38494106      15.80125310     -17.37418902      16.95615686      -0.07335239       0.27139443      -0.09413565      -0.18879409      -0.20827394       0.67151532      -0.07335239       0.27139443      -0.09413565       0.05353975       0.03016462       0.72606197       0.06946000      -0.08620000      -0.01401000       0.02050000       0.29241000      -0.01154000      -0.39977000       0.20600000       0.03166000
Mo       1.45072929       3.63567999       9.53306933      98.98455665     -22.72646541      25.02444681     -29.60053678      21.96026373      -3.41407355       0.44747829       0.13346922       0.61843604     -29.60053678      21.96026373      -3.41407355      19.28892364     -13.97756391      37.64665993       0.09290357       0.92172257      -0.26405174       0.44747829       0.13346922       0.61843604       0.09290357       0.92172257      -0.26405174       0.05757945      -0.02584738       0.12768168      -1.89895000      -0.10547000      -0.04344000       0.30465000      -0.72714000      -0.01806000      -0.34725000      -0.11191000      -0.07292000
S        3.00989541       4.46156192      11.18286503      20.77594714      12.23808013     -24.36741052      12.78181198       0.59728160       6.28968941      -0.21672727       0.01659399       0.11593845      12.78181198       0.59728160       6.28968941      12.28047678       6.69197959     -23.50686709       0.11487622       0.02380338       0.05742711      -0.21672727       0.01659399       0.11593845       0.11487622       0.02380338       0.05742711      -0.05998274      -0.01086041      -0.64806072       0.46350000       0.07244000      -0.01754000       0.08924000       0.49272000      -0.00690000       0.44689000       0.30050000       0.08132000
S        3.04091753       4.49220915       8.01476618       4.59103004      10.51094264       4.08980935      11.71159127      -3.53683901      -2.15198186       0.10429229      -0.11450102       0.04741919      11.71159127      -3.53683901      -2.15198186       8.22126977       4.73248482       2.85535484      -0.17132825      -0.07366290       0.09309687       0.10429229      -0.11450102       0.04741919      -0.17132825      -0.07366290       0.09309687       0.04027937       0.01622453       0.59801103       0.40086000      -0.34854000      -0.00853000      -0.27538000       0.35748000      -0.01457000      -0.09122000      -0.25745000       0.02796000
W       -0.03083468       6.34566366       9.48892607      49.79286319     -33.45310954      27.27877517     -38.64068258      11.71193055      -1.07334422       0.85109679       0.01649462       1.04973519     -38.64068258      11.71193055      -1.07334422      28.12603088     -43.56744361      30.47380604       0.08883599       0.83732877      -0.59827459       0.85109679       0.01649462       1.04973519       0.08883599       0.83732877      -0.59827459       0.03911254      -0.02222288       0.07793782       0.03202000       0.12291000      -0.06488000      -0.12617000      -0.67527000       0.03421000       0.20106000       0.03518000      -0.12915000
S        1.64482841       7.08663309      11.14846890      -3.15124763      17.97547704     -22.28928005      21.02181233       0.81991658      -2.00165413      -0.37267706      -0.14823822       0.05742619      21.02181233       0.81991658      -2.00165413     -10.86942244      29.19642852     -13.60594915      -0.06529290      -0.30274789       0.31451050      -0.37267706      -0.14823822       0.05742619      -0.06529290      -0.30274789       0.31451050       0.00047398      -0.01559160      -0.61571632       0.66666000       0.02652000      -0.02284000       0.10407000       0.60115000      -0.00702000       0.01886000       0.40131000       0.06058000
S        1.64829614       7.25495855       7.94794210       6.98438618       8.51397389      13.46763084      11.67684622      -1.12318712       0.67985562       0.15145514       0.12904055       0.02521146      11.67684622      -1.12318712       0.67985562      -2.71969558      -1.68189170      11.08096541       0.00636734      -0.02836203       0.10079056       0.15145514       0.12904055       0.02521146       0.00636734      -0.02836203       0.10079056       0.04161029       0.01602885       0.66691193       0.30156000      -0.14348000      -0.02370000      -0.08263000       0.58508000      -0.00078000       0.03367000      -0.21811000       0.03044000
Mo       6.34125871       0.92447792       9.60879704     -80.63930861     -31.65800388     -10.60398650     -16.40601100     -19.92921808      -0.93457323      -0.33795815       0.26702350      -0.71962239     -16.40601100     -19.92921808      -0.93457323     -13.79688442      40.61461931      -4.59614362       0.10913697      -0.11112893       0.13257140      -0.33795815       0.26702350      -0.71962239       0.10913697      -0.11112893       0.13257140      -0.04451630       0.01104527       0.02461429      -0.64860000      -0.59191000      -0.03734000      -0.08123000      -0.79386000      -0.00579000       0.26443000      -0.08760000      -0.06059000
S        7.81598093       1.71690095      11.33853796      -8.31239466      18.35917648     -32.75156053       9.32159799      -2.98217427       0.49627081       0.03766292      -0.03985120      -0.12770776       9.32159799      -2.98217427       0.49627081      -5.02494072      11.04935877     -25.83661320      -0.13037983      -0.29543951       0.27628961       0.03766292      -0.03985120      -0.12770776      -0.13037983      -0.29543951       0.27628961       0.01715204       0.01921769      -0.82931565       0.15969000       0.21082000       0.00023000      -0.03098000       0.36070000       0.00050000       0.08188000       0.01776000       0.04837000
S        7.75946632       1.83349164       7.93491468      17.27756121       7.86076005      34.80607180       4.55166173       2.54708650       0.26151496       0.27059533       0.03185294       0.24574127       4.55166173       2.54708650       0.26151496      11.90152074     -10.90118904      25.84158428      -0.05753037       0.39444503      -0.09367048       0.27059533       0.03185294       0.24574127      -0.05753037       0.39444503      -0.09367048       0.00068945      -0.00891445       0.72401393       0.42393000       0.15471000       0.00526000       0.00804000       0.46126000       0.01470000      -0.11439000       0.17617000       0.01916000
W        4.70852049       3.64777018       9.57552558    -119.79543727     -28.82301059      -7.21306295      -3.94086449     -25.39170881       0.74304978      -0.31474656      -0.07508084      -0.96273722      -3.94086449     -25.39170881       0.74304978     -45.44686263     -14.08221774     -16.31854511      -0.03578458      -0.74687577       0.03522877      -0.31474656      -0.07508084      -0.96273722      -0.03578458      -0.74687577       0.03522877      -0.05056416      -0.02080810      -0.02220974      -0.17095000       0.29510000      -0.00346000       0.46828000      -0.56730000      -0.12077000       0.10445000      -0.23722000      -0.15395000
S        6.23760172       4.47487050      11.09007984      -2.50339219      18.51243136       0.36625882       8.18598243       2.56905928      -2.29780515       0.28588090      -0.08094527      -0.01830991       8.18598243       2.56905928      -2.29780515      -5.32179009      -3.26458147      -4.47557651      -0.00639728       0.23384852      -0.07781537       0.28588090      -0.08094527      -0.01830991      -0.00639728       0.23384852      -0.07781537       0.01196862      -0.00774440      -0.52612180       0.64732000      -0.05668000       0.01386000      -0.09435000       0.80235000       0.00261000      -0.05858000       0.19385000       0.07500000
S        6.16009328       4.51695187       7.97671488      15.36884414      10.11813436      19.93359796       6.04323145       6.35541723      -1.62907169      -0.03529450      -0.04825356       0.40802503       6.04323145       6.35541723      -1.62907169       9.05042840      -5.50052400      20.14504161      -0.14997189       0.06939385       0.19370047      -0.03529450      -0.04825356       0.40802503      -0.14997189       0.06939385       0.19370047       0.00894950       0.00970633       0.65003227       0.38668000       0.02392000       0.01121000      -0.14623000       0.49987000       0.00582000      -0.05996000       0.14863000       0.03485000
Mo       3.19837119       6.31267337       9.55949905     -35.50673534     -45.67052388       6.92565846     -40.31930373      -1.56313827      -2.47856634       0.32720007       0.13587113      -0.47234788     -40.31930373      -1.56313827      -2.47856634     -20.05653936     -23.35271228       3.46947221       0.15578710       0.39089465      -0.29688446       0.32720007       0.13587113      -0.47234788       0.15578710       0.39089465      -0.29688446      -0.04186824      -0.01316561       0.18660211      -0.91247000       0.43690000      -0.04264000      -0.04758000      -1.12741000       0.02121000      -0.34224000       0.39272000      -0.07287000
S        4.61995280       7.19375781      11.21988538       9.01522691       6.30773313     -14.79793883       6.68336348       0.47817269       2.15703646      -0.02626900       0.27217885       0.03385320       6.68336348       0.47817269       2.15703646       8.36244491     -15.11301158     -15.26856151       0.02752995      -0.06856297      -0.04720157      -0.02626900       0.27217885       0.03385320       0.02752995      -0.06856297      -0.04720157      -0.02034892       0.01556225      -0.67350044       0.57866000       0.04331000       0.00707000       0.03167000       0.41970000       0.01053000       0.08072000      -0.25539000       0.07723000
S        4.83513947       7.18194879       8.07090591     -34.06015541      13.03631538       8.40064502       9.87281452     -13.72120638       1.92648586      -0.24484869      -0.41763221      -0.25831905       9.87281452     -13.72120638       1.92648586     -13.26132080       2.95445748      16.90643210      -0.11580718       0.07917897       0.24371963      -0.24484869      -0.41763221      -0.25831905      -0.11580718       0.07917897       0.24371963       0.00443014       0.00167850       0.53338356       0.53245000      -0.18818000       0.01473000      -0.21563000       0.53008000       0.01296000       0.82316000       0.05864000       0.03868000
27
Lattice="9.86893797313812 0.0 0.0 -4.93446898656906 8.546500284737613 0.0 -0.0 0.0 20.532325453113856" Properties=species:S:1:pos:R:3:raman_tensor:R:27:born_effective_charge:R:9 susceptibility_tensor="_JSON [[-662.5320617750566, 1.996105256600412, -0.10497194461337907], [1.9968403457591506, -659.3605149140715, 0.07780823654973583], [-0.15473709478640257, 0.09228290556372608, -38.26816375824996]]" pbc="T T T"
W        0.03809410       1.00080900      10.20004084       0.32979571       2.13070606      -2.71786684     -10.85850544      -4.42079604       1.60027337      -0.07493122      -0.00989798      -0.28432410     -10.85850544      -4.42079604       1.60027337       3.47329690     -12.60098064       5.18612135       0.24186956       0.04154193      -0.49292213      -0.07493122      -0.00989798      -0.28432410       0.24186956       0.04154193      -0.49292213      -0.02137159      -0.02826833      -0.03146595      -1.63213000      -0.04971000      -0.01205000      -0.34845000      -1.59004000       0.03925000      -0.02738000      -0.05114000      -0.00810000
Se       1.68512116       1.73574881      11.94555990      10.49471805      19.27476803     -11.40085280       8.03624259       7.22654991       2.98714576      -0.09539279      -0.05240320       0.29656751       8.03624259       7.22654991       2.98714576       5.50063790      10.80508725     -14.37195665       0.00957667      -0.16370297       0.18566896      -0.09539279      -0.05240320       0.29656751       0.00957667      -0.16370297       0.18566896       0.01025340       0.01937037      -0.70914963       0.59829000       0.02919000      -0.01010000       0.02441000       0.80365000       0.00939000       0.06487000       0.28248000       0.01279000
Se       1.82111512       1.87539428       8.57186346     -12.92802368       0.82923176      20.03837470       5.65285455       6.13635847      -2.33016663       0.36460771      -0.01871633       0.26206297       5.65285455       6.13635847      -2.33016663       3.94006010     -12.50932521      15.61118255      -0.16996461       0.15324386      -0.02694293       0.36460771      -0.01871633       0.26206297      -0.16996461       0.15324386      -0.02694293       0.05192703      -0.02980362       0.76809664       0.86187000      -0.08134000      -0.00375000      -0.05559000       0.54746000      -0.00022000       0.29391000      -0.12171000       0.00969000
W       -1.77078354       3.87276864      10.19490899      85.07968985     -12.91412115       8.53494045     -25.54336273      34.02484260      -0.06487294      -0.13579623       0.15369106       1.21934984     -25.54336273      34.02484260      -0.06487294      21.52402459     -60.65427965       4.51710449      -0.06686417      -0.04097503      -0.53091741      -0.13579623       0.15369106       1.21934984      -0.06686417      -0.04097503      -0.53091741       0.07248316      -0.04172382      -0.02503962      -1.94117000      -0.11629000       0.02124000      -0.03974000      -1.21095000      -0.02658000       0.09049000       0.09426000      -0.01616000
Se       0.00917811       4.58214790      12.04750603      -6.63468814      13.32981100     -31.58122742       9.16424109       3.75938286      -1.65484445      -0.61278583      -0.20311865      -0.17572458       9.16424109       3.75938286      -1.65484445       1.01261853      11.78985785     -30.07196906       0.18412561      -0.22982746       0.25167033      -0.61278583      -0.20311865      -0.17572458       0.18412561      -0.22982746       0.25167033      -0.01564700       0.00405736      -0.89766497       0.50341000      -0.01959000       0.00056000      -0.09852000       0.49439000      -0.00097000       0.06565000       0.49664000      -0.01647000
Se       0.01786278       4.78426375       8.52834144       0.18743696       1.86594416      27.07686605       5.70718338       4.61680811      -0.61690543       0.38896504       0.18794220       0.17011666       5.70718338       4.61680811      -0.61690543       3.31190290      -9.87781678      27.27347272      -0.18598870       0.15848005      -0.02533247       0.38896504       0.18794220       0.17011666      -0.18598870       0.15848005      -0.02533247      -0.00930936       0.01116374       0.79046415       0.63857000      -0.03219000      -0.00621000       0.02084000       0.59650000      -0.02065000      -0.02296000      -0.23219000       0.00616000
W       -3.37497941       6.58722003      10.21395604      54.61063842      23.19025167       4.41761054       7.95103818      -0.77625730      -1.32084805       0.10236098       0.14988049       0.67091799       7.95103818      -0.77625730      -1.32084805       7.93314641      85.82903943       2.34487870       0.01224807       0.17059314       0.88968191       0.10236098       0.14988049       0.67091799       0.01224807       0.17059314       0.88968191       0.03894513       0.04893297      -0.02569486      -1.32245000       0.19061000       0.00010000      -0.29133000      -1.77095000      -0.02363000      -0.26269000      -0.09366000      -0.03072000
Se      -1.64031618       7.49664266      12.01069489       1.19871977       1.27182105     -22.87966590       0.02176502       9.36542712      -1.85479515      -0.25392141      -0.15426539       0.05120108       0.02176502       9.36542712      -1.85479515       2.84841975     -18.89602253     -21.36832482      -0.03857725      -0.19577872      -0.35845757      -0.25392141      -0.15426539       0.05120108      -0.03857725      -0.19577872      -0.35845757       0.00581877      -0.02461888      -0.78487090       0.62459000      -0.02556000       0.00367000      -0.01467000       0.52228000       0.00893000       0.23986000       0.03827000       0.01143000
Se      -1.57903008       7.51884777       8.68525755       4.77091884       4.48046543      11.20176536       3.43091127       6.30185799      -2.09137308       0.23181717       0.13236856       0.21012327       3.43091127       6.30185799      -2.09137308       4.75020116      -5.37173528      10.42098104       0.05884396       0.27103920      -0.23761029       0.23181717       0.13236856       0.21012327       0.05884396       0.27103920      -0.23761029       0.01531153      -0.01376959       0.57783883       0.86122000      -0.02258000      -0.00301000      -0.06645000       0.85499000       0.00153000      -0.07973000      -0.04912000       0.00252000
W        3.42244900       0.85820285      10.36337177     -98.93040599     -14.09490624     -21.62589711      -4.37043096     -29.90505833       2.74495125      -1.05178705      -0.02095015      -0.97431013      -4.37043096     -29.90505833       2.74495125     -42.69171170      41.20850182     -26.60081907      -0.08882469      -0.81492488       0.32622598      -1.05178705      -0.02095015      -0.97431013      -0.08882469      -0.81492488       0.32622598      -0.08439516       0.04315711      -0.05400165      -1.08005000      -0.14623000       0.01535000       0.16956000      -0.98466000       0.02905000       0.03693000       0.08163000       0.00709000
Se       4.97384605       1.85200490      12.05964482      -6.03293158      13.55482977     -38.63118347       7.46661208      -6.05939880       4.20047226      -0.22049364       0.19348426      -0.09601365       7.46661208      -6.05939880       4.20047226      -0.77044212       1.80099724     -29.83192263       0.22428588      -0.29444498      -0.01190672      -0.22049364       0.19348426      -0.09601365       0.22428588      -0.29444498      -0.01190672       0.02883883      -0.00143320      -0.86303005       0.50719000      -0.16768000      -0.00298000      -0.16690000       0.55324000      -0.01596000      -0.24632000      -0.22737000      -0.00534000
Se       4.85976113       1.97625483       8.55873777      15.05751912     -12.15176985      37.04735166      -0.38218289      -4.42574308      -1.38016660       0.24736228       0.03696360       0.08328631      -0.38218289      -4.42574308      -1.38016660       0.46681273     -28.04875444      18.35248813       0.07676016       0.32097446      -0.20630582       0.24736228       0.03696360       0.08328631       0.07676016       0.32097446      -0.20630582      -0.03051015       0.00099656       0.77209659       0.67004000       0.13638000       0.00677000       0.11092000       0.50350000       0.00109000      -0.09119000       0.28619000       0.00270000
W        1.71689914       3.78305999      10.24751043     -50.55688380     -32.18355088      23.59698257     -17.46457198     -12.34722182       2.59591826       0.55466301       0.09023104      -0.40709461     -17.46457198     -12.34722182       2.59591826     -15.46469763     -34.80677269      16.54014484      -0.09784440       0.60310544       0.00191513       0.55466301       0.09023104      -0.40709461      -0.09784440       0.60310544       0.00191513      -0.03899555      -0.01475076       0.04518835      -1.34604000      -0.43782000      -0.00304000       0.73737000      -1.20330000      -0.00344000      -0.06677000      -0.18600000       0.00267000
Se       3.45047678       4.75850582      12.07504037     -32.25783500       3.66223596     -29.48838303       5.49435271      -9.31538338      -3.44941499      -0.36354633      -0.01768899      -0.29756191       5.49435271      -9.31538338      -3.44941499     -20.00021211       3.94267911     -27.84231426       0.00169128      -0.26343517       0.13297747      -0.36354633      -0.01768899      -0.29756191       0.00169128      -0.26343517       0.13297747      -0.00219869       0.00440255      -0.90335368       0.62416000      -0.06790000      -0.00311000      -0.03370000       0.54820000      -0.01520000      -0.39435000      -0.10363000      -0.00919000
Se       3.21303014       4.91670490       8.60709556      12.47968757      -0.77107620      26.87715898       4.63217960       2.03845849       1.06738875       0.18412515       0.01572263       0.14647156       4.63217960       2.03845849       1.06738875       3.39316328     -16.61707490      25.29413647      -0.02457455       0.24726140      -0.01733315       0.18412515       0.01572263       0.14647156      -0.02457455       0.24726140      -0.01733315       0.01305477       0.03102307       0.67127071       0.85244000      -0.09941000      -0.00656000       0.05995000       0.99119000      -0.00100000      -0.17860000       0.23228000       0.02057000
W        0.07451048       6.53461859      10.31491528     -47.12954830     -15.61427545       6.21439339     -18.07015957     -24.15368965       2.20165325       0.33067471      -0.18628412      -0.64558205     -18.07015957     -24.15368965       2.20165325      -5.37365935      47.85962572       6.82848671       0.01657200       0.27399691       0.44787901       0.33067471      -0.18628412      -0.64558205       0.01657200       0.27399691       0.44787901      -0.03088121       0.05619127       0.13728896      -0.78678000      -0.12267000       0.03751000       0.06167000      -1.09184000      -0.00871000       0.07440000       0.00898000       0.00168000
Se       1.59659679       7.62661658      12.09694941       8.98614257       1.49724725     -34.75554837       2.45233722       1.97780470       3.89923044      -0.19536447       0.07760881      -0.04411319       2.45233722       1.97780470       3.89923044       8.23139895     -13.31071725     -25.41678192      -0.07709118      -0.44466563       0.13741169      -0.19536447       0.07760881      -0.04411319      -0.07709118      -0.44466563       0.13741169      -0.02964321       0.03812204      -0.94041650       0.33113000       0.03514000      -0.00286000       0.08304000       0.52824000       0.00292000       0.07298000      -0.27637000      -0.01506000
Se       1.63103938       7.64319639       8.66413803      -1.18534212      -1.78148287      20.56208801       7.48157243      -2.76424575      -1.41239559       0.18733870      -0.13909005       0.17406632       7.48157243      -2.76424575      -1.41239559       0.01796499     -23.17652776      10.18221485      -0.03429421      -0.19717112      -0.51168963       0.18733870      -0.13909005       0.17406632      -0.03429421      -0.19717112      -0.51168963       0.01668687      -0.06522692       0.60931757       0.95373000      -0.06684000      -0.00575000      -0.12763000       0.65360000       0.00296000       0.00750000      -0.04457000       0.01511000
W        6.51715057       0.92373259      10.21938396      44.15116578       3.52835349      11.63397118       6.25536218      20.65573333      -2.42122052       0.72001740       0.09616756       0.35213625       6.25536218      20.65573333      -2.42122052      22.52105086      71.55355859      30.61384459      -0.15887566       0.92216882       0.61190337       0.72001740       0.09616756       0.35213625      -0.15887566       0.92216882       0.61190337       0.02683093       0.02666276       0.07857125      -1.36482000       0.51044000       0.00561000       0.06015000      -1.41461000       0.01191000       0.11084000      -0.06182000      -0.01230000
Se       8.17355312       1.97615614      11.82387590      -2.13412758       4.35808095      -7.99699235       2.50708768      -6.71438876      -3.24237180      -0.15817895       0.00509167      -0.13752799       2.50708768      -6.71438876      -3.24237180      -6.38691202     -14.75355946     -13.53951501      -0.25026407      -0.27267891       0.01508136      -0.15817895       0.00509167      -0.13752799      -0.25026407      -0.27267891       0.01508136      -0.02680619       0.01464974      -0.56444123       1.00312000       0.24731000       0.00439000       0.04768000       1.04036000       0.00947000       0.05722000      -0.17156000       0.01338000
Se       8.15884840       2.02510607       8.56081024       0.07130241      -5.28478229      10.68375034       1.28993373      -4.74628313       1.82972963       0.13458008      -0.13539840      -0.17705201       1.28993373      -4.74628313       1.82972963       1.03836526     -21.96526507      11.45259259       0.11725286       0.21756808      -0.03952719       0.13458008      -0.13539840      -0.17705201       0.11725286       0.21756808      -0.03952719      -0.00850057       0.01991825       0.72493375       0.83299000       0.04046000       0.00420000      -0.15839000       0.82020000       0.00112000      -0.07608000       0.19804000       0.01830000
W        4.86084671       3.85539931      10.25283966      59.71468614     -22.67179607       2.32896694     -12.37935380      25.06359501       0.57902030      -0.01207270      -0.13597842       0.67512489     -12.37935380      25.06359501       0.57902030      28.35468985     -32.42138759       5.27170271       0.09490806      -0.05652621      -0.35736265      -0.01207270      -0.13597842       0.67512489       0.09490806      -0.05652621      -0.35736265       0.06491909      -0.03568971       0.01236820      -1.51734000       0.09607000      -0.03722000      -0.41180000      -1.54822000      -0.00313000      -0.00821000       0.38605000      -0.02879000
Se       6.59067416       4.85156991      11.88180656     -16.99041735      -6.40198970     -28.10533586       1.71961712     -10.14772948      -2.02295555      -0.12768092      -0.01151759      -0.49756657       1.71961712     -10.14772948      -2.02295555     -14.56737967     -22.09676087     -24.47034639      -0.18485249      -0.06776415      -0.13701415      -0.12768092      -0.01151759      -0.49756657      -0.18485249      -0.06776415      -0.13701415      -0.02994892       0.00620972      -0.61792008       0.90776000       0.08417000       0.01025000       0.20166000       1.03739000       0.00298000      -0.00445000      -0.09124000       0.02464000
Se       6.52711820       4.72880032       8.39422257     -17.27082451       9.85204708      32.21807093       9.85161370      -4.76605356       4.02641032       0.31674221      -0.09421147      -0.32323369       9.85161370      -4.76605356       4.02641032      -9.26250968      12.47198380      35.62804275       0.11351242       0.09762420       0.13752401       0.31674221      -0.09421147      -0.32323369       0.11351242       0.09762420       0.13752401      -0.00494960      -0.01120042       0.98388933       0.45253000       0.03170000       0.00464000       0.08852000       0.33152000      -0.00373000       0.20887000      -0.38589000      -0.00623000
W        3.28408649       6.71275292      10.35784516     -12.94792490       2.23417568     -26.60968523     -12.29059137       1.36258314      -2.58601739      -0.77914026      -0.05404201      -0.22250848     -12.29059137       1.36258314      -2.58601739      -1.96424818      39.69198783     -16.96267517       0.05910881      -0.56311067      -0.13549051      -0.77914026      -0.05404201      -0.22250848       0.05910881      -0.56311067      -0.13549051      -0.01111076      -0.01988808      -0.01496803      -1.56981000      -0.09181000      -0.01962000      -0.08867000      -1.45581000      -0.01156000       0.25683000      -0.08794000      -0.02150000
Se       4.92144199       7.59947700      11.88022753       7.80142067      14.88524982      -8.09088955       6.98321128       0.30394484      -0.97935089       0.07139765      -0.00092258       0.31389596       6.98321128       0.30394484      -0.97935089      -0.37414668       6.16984294     -20.79891362       0.08628522      -0.21827209       0.17869862       0.07139765      -0.00092258       0.31389596       0.08628522      -0.21827209       0.17869862       0.02201875       0.00162445      -0.61778883       0.82873000       0.09190000       0.00179000       0.11441000       0.98103000       0.00154000      -0.07709000      -0.05667000       0.02878000
Se       4.88018983       7.64783479       8.48896438       0.01704422       4.23743592      21.18341352       5.83748364      -2.23309709      -0.31008482       0.24985923       0.09314258      -0.17587390       5.83748364      -2.23309709      -0.31008482      -1.56408467      -8.05986929      25.41079370       0.07134679       0.33138545      -0.15330854       0.24985923       0.09314258      -0.17587390       0.07134679       0.33138545      -0.15330854      -0.02375245      -0.03899388       0.87962423       0.50884000       0.05428000       0.00018000       0.12167000       0.46266000       0.01265000      -0.04454000       0.13608000      -0.00766000
27
Lattice="9.96862437564776 0.0 0.0 -4.98431218782388 8.63282870931096 0.0 -0.0 0.0 20.53237562652169" Properties=species:S:1:pos:R:3:raman_tensor:R:27:born_effective_charge:R:9 susceptibility_tensor="_JSON [[-704.9800820274436, -8.890565301479517, -0.26868792708417205], [-8.890425675272358, -712.7707198764908, 0.01411138660425521], [-0.2699240338184435, 0.008424817550973069, -38.826142051665066]]" pbc="T T T"
W       -0.03937607       0.86447911      10.12802268      35.77135499       6.19300427      40.43158429      16.94888157       2.62321447      -0.11412653       0.68829994       0.04806214       0.34909246      16.94888157       2.62321447      -0.11412653      30.24549618      71.01568476      34.88389732      -0.19501867       0.88885742       1.00347899       0.68829994       0.04806214       0.34909246      -0.19501867       0.88885742       1.00347899       0.03933318       0.04814675       0.09963285      -1.15859000      -0.36789000      -0.00223000      -0.52615000      -1.63243000      -0.01535000      -0.22904000       0.24809000      -0.00113000
Se       1.71430433       1.82944195      11.95696619      -4.25850941       4.59516542     -29.64908694       9.51222922       0.14754172      -6.74930990      -0.50856061       0.17392414       0.20059878       9.51222922       0.14754172      -6.74930990      -4.06520338      -7.94831488     -21.24459752      -0.18558243      -0.08135350      -0.28429298      -0.50856061       0.17392414       0.20059878      -0.18558243      -0.08135350      -0.28429298       0.02752709      -0.07609376      -0.79788759       0.68878000       0.08400000       0.01624000      -0.04140000       0.48760000      -0.00476000       0.13686000       0.34033000       0.00384000
Se       1.64372647       1.84339802       8.41142556       8.91572042      16.43435128      25.99222940      12.50365412      -1.58893857      -2.80404123       0.35609171      -0.22614050       0.00334356      12.50365412      -1.58893857      -2.80404123       3.75762052      17.05518897      27.27071840       0.33962678       0.25661698       0.18780944       0.35609171      -0.22614050       0.00334356       0.33962678       0.25661698       0.18780944       0.00304479      -0.01015824       0.98087380       0.19915000      -0.00827000       0.00445000      -0.17655000       0.38519000      -0.00882000      -0.15200000      -0.41699000      -0.00577000
W       -1.57643826       3.92046059      10.22302367     -65.58056768     -14.17255067      27.87002883     -29.46087437     -20.03794733       8.13041392       1.09614844      -0.00234414      -1.12809745     -29.46087437     -20.03794733       8.13041392     -11.25070456      -3.81933483      24.63708544       0.19030284       0.89096636      -0.55195508       1.09614844      -0.00234414      -1.12809745       0.19030284       0.89096636      -0.55195508      -0.05988329      -0.02911919       0.06787937      -1.75999000       0.19683000      -0.02835000       0.29922000      -1.00611000      -0.01437000      -0.35198000      -0.37108000      -0.00823000
Se       0.01315858       4.93935369      11.93982016      16.26766081       3.64147987     -10.02282535       3.34050163       3.34222990       2.19719400       0.07942199      -0.01879930       0.22950848       3.34050163       3.34222990       2.19719400      -1.57289580     -21.67206810     -12.03177281       0.05614184      -0.28453775       0.23644929       0.07942199      -0.01879930       0.22950848       0.05614184      -0.28453775       0.23644929      -0.05035409       0.05056577      -0.69845160       0.65346000       0.10161000      -0.00528000       0.09112000       0.77673000      -0.00004000       0.10201000      -0.40341000       0.02319000
Se      -0.01714603       4.86997207       8.66183741      29.76106306      13.84781846      -9.21868415      11.26589212       4.95358279      -7.39405757       0.03887170      -0.27689015       0.68127837      11.26589212       4.95358279      -7.39405757      10.34628479      -0.71372380       6.31540747      -0.37761998       0.05845370       0.08659337       0.03887170      -0.27689015       0.68127837      -0.37761998       0.05845370       0.08659337       0.04288112       0.02034841       0.65836481       0.64459000      -0.31277000       0.00873000      -0.16094000       0.70161000       0.02213000       0.24632000       0.30825000       0.00607000
W       -3.36231732       6.67658586      10.36118880     -52.40048463      28.25325370      -4.01489172       1.92582632       8.00111871     -13.75995813      -0.20898510      -0.03025719       0.43459776       1.92582632       8.00111871     -13.75995813     -11.74523895      13.31095932      16.14270234      -0.00686884      -0.07801881       0.38549693      -0.20898510      -0.03025719       0.43459776      -0.00686884      -0.07801881       0.38549693      -0.02035928       0.03010982       0.12587763      -1.57237000      -0.32279000       0.00879000       0.10326000      -1.93328000       0.03379000       0.27373000       0.06416000      -0.03981000
Se      -1.66854835       7.72817605      12.01289018      17.31907899       8.16719052     -19.88007216       8.13242351       5.26851612       5.75182414      -0.34292158      -0.21587955       0.38232897       8.13242351       5.26851612       5.75182414       9.66403561       8.26004680     -30.53383087      -0.05648169      -0.25869514       0.32432981      -0.34292158      -0.21587955       0.38232897      -0.05648169      -0.25869514       0.32432981       0.02042001       0.04423602      -0.81008294       0.45233000      -0.04130000       0.00385000      -0.09652000       0.72178000       0.01206000       0.22733000      -0.05410000       0.00187000
Se      -1.80452038       7.69836986       8.57780190      37.24173248      -7.35764409      15.80461528       3.14638554      10.78007469      -2.30580491       0.48567668       0.15740827       0.14227985       3.14638554      10.78007469      -2.30580491      22.64352121      -7.11815557      20.74732498       0.09036637       0.39647376       0.29839021       0.48567668       0.15740827       0.14227985       0.09036637       0.39647376       0.29839021      -0.01720658      -0.00574485       0.71873364       0.69510000      -0.09061000       0.00407000      -0.12672000       0.66166000       0.00484000      -0.58436000      -0.24892000       0.00982000
W        3.39810468       1.01869372      10.16590345    -148.01909347     -23.20808671      25.20048443     -52.11798897     -39.23942634      -0.01471259       0.49571544       0.10159497      -1.07591737     -52.11798897     -39.23942634      -0.01471259     -68.55623646     -17.25937331      20.78004202      -0.05147409       0.66551207      -1.00456786       0.49571544       0.10159497      -1.07591737      -0.05147409       0.66551207      -1.00456786      -0.06427205      -0.03292452      -0.04596739      -1.08616000       0.12247000       0.02659000       0.41883000      -0.67158000       0.00622000      -0.02225000       0.71043000      -0.01730000
Se       5.03644809       1.89463675      11.95826211      -9.34446934      -6.60292562     -32.76359366      -0.14109782      -8.23943542       2.99008484      -0.10260160      -0.06774726      -0.18586054      -0.14109782      -8.23943542       2.99008484      -5.13979470     -41.88806411     -29.85709435       0.15530571       0.00090064      -0.38125365      -0.10260160      -0.06774726      -0.18586054       0.15530571       0.00090064      -0.38125365      -0.00661338      -0.05545470      -0.74192909       0.81509000      -0.01296000      -0.00510000      -0.00044000       0.49204000      -0.01104000      -0.22659000      -0.37346000       0.01101000
Se       5.04831076       1.94477893       8.43624744     -18.14040317       8.17531982      36.82752742       6.51537036      -8.75493312      -0.91627633       0.04188706       0.06868073      -0.05533588       6.51537036      -8.75493312      -0.91627633      -3.64011846     -11.98721427      44.72921253      -0.32853946       0.24680534       0.07923725       0.04188706       0.06868073      -0.05533588      -0.32853946       0.24680534       0.07923725       0.01194516       0.03051466       0.94218312       0.45878000      -0.03489000       0.00038000      -0.08704000       0.59618000      -0.01126000       0.34160000       0.06376000       0.00922000
W        1.71510182       3.76534880      10.36607343     -39.24469932       0.27686571     -31.38651073     -11.53653669      -0.86744136       4.28778175      -0.69067012       0.07935137       0.08547985     -11.53653669      -0.86744136       4.28778175     -35.96097477      58.14598857     -37.78686391       0.09486854      -0.65860951       0.59261883      -0.69067012       0.07935137       0.08547985       0.09486854      -0.65860951       0.59261883      -0.02690921       0.04048649      -0.03495075      -0.59403000       0.38641000       0.04021000      -0.40977000      -1.18767000      -0.02210000       0.11742000      -0.19652000       0.00930000
Se       3.51683099       4.73061070      12.01478421     -38.90448696      -0.37079092      -3.86602956       0.00153985      -7.72197331      -5.52237947      -0.17715098      -0.11336128      -0.39020351       0.00153985      -7.72197331      -5.52237947     -18.19092272     -15.93694593      -2.38001903      -0.14238386      -0.28824012      -0.00380817      -0.17715098      -0.11336128      -0.39020351      -0.14238386      -0.28824012      -0.00380817      -0.00501463      -0.01954343      -0.79569992       0.82151000       0.10780000      -0.00725000       0.06422000       0.82050000       0.00602000      -0.34491000      -0.05331000       0.02360000
Se       3.43309455       4.89030806       8.65236721     -30.33145941     -20.62346755      29.56264685      -7.76761793      -7.14226455       4.84232175       0.42092643      -0.04875030       0.09224132      -7.76761793      -7.14226455       4.84232175      -8.93378650     -51.88052913       8.41013585      -0.05730550       0.22222293      -0.48155464       0.42092643      -0.04875030       0.09224132      -0.05730550       0.22222293      -0.48155464       0.03608744      -0.02963069       0.69643976       0.89608000      -0.00558000      -0.00695000      -0.02164000       0.73855000       0.00189000       0.37587000       0.57281000       0.00763000
W        0.02591842       6.85073773      10.28492883     -50.08626641    -106.53415576      -6.53872770     -65.12137342     -31.54460597       0.73486757      -0.70714253       0.17966977      -0.91594120     -65.12137342     -31.54460597       0.73486757     -34.17563352    -130.52242479      -5.98195135      -0.03183003      -0.55534456      -1.35428770      -0.70714253       0.17966977      -0.91594120      -0.03183003      -0.55534456      -1.35428770      -0.01677282      -0.11044543      -0.04981442      -1.09268000       0.15006000       0.02330000       0.20927000      -0.91820000       0.04111000       0.23982000      -0.15489000      -0.01788000
Se       1.56437622       7.66208407      11.95826211      -7.82597383      23.14614751     -26.97380490      12.42852784      -1.51386949      -8.01980273      -0.13489959       0.15079268      -0.30368533      12.42852784      -1.51386949      -8.01980273       6.43740470       8.92290658     -31.38249045       0.11940990       0.04978852       0.12819146      -0.13489959       0.15079268      -0.30368533       0.11940990       0.04978852       0.12819146      -0.03061879       0.03903408      -0.75262419       0.53761000       0.00286000      -0.00933000       0.12849000       0.74305000       0.00383000      -0.25654000       0.07129000       0.01041000
Se       1.52749231       7.71003315       8.52935439       1.40766057      -0.44316204      24.62779701       5.39983243       2.53895570       3.01287371       0.29983388      -0.19460808       0.16072181       5.39983243       2.53895570       3.01287371      13.72958329     -26.51570315      26.49215895      -0.13701972      -0.04503378       0.10898674       0.29983388      -0.19460808       0.16072181      -0.13701972      -0.04503378       0.10898674      -0.00948285      -0.02704154       0.80994213       0.71018000      -0.14858000       0.00647000      -0.02169000       0.54452000       0.00688000       0.14002000      -0.09532000       0.01489000
W        6.51220325       0.88142577      10.12901954     150.79127381      20.75082202      33.64611928      -1.11651711      52.80497913      -0.76612539       0.86826890      -0.05990890       1.38069194      -1.11651711      52.80497913      -0.76612539      45.59527273     106.25542629      34.21884872       0.16860227       0.98849279       0.95674863       0.86826890      -0.05990890       1.38069194       0.16860227       0.98849279       0.95674863       0.07402453       0.05044571       0.10683217      -1.56277000       0.36984000      -0.02085000       0.70962000      -1.58471000      -0.00731000       0.33172000       0.53570000      -0.06210000
Se       8.22880036       1.89304177      11.78839676      15.77108938      -1.78612786     -13.71557197       0.79351195       5.68300546       7.49692486      -0.53392731       0.06460586      -0.14056143       0.79351195       5.68300546       7.49692486      11.23105747     -20.07178597     -19.29632396       0.08523358      -0.55950420      -0.02375014      -0.53392731       0.06460586      -0.14056143       0.08523358      -0.55950420      -0.02375014      -0.03699431      -0.01466436      -0.56284323       0.84428000      -0.08887000      -0.00420000       0.08981000       0.83072000      -0.00610000       0.35223000      -0.15775000       0.00555000
Se       8.27595196       1.97737633       8.63890957      -3.94747813      -0.47358936     -11.24329254       5.40897739      -2.58120137       3.20209289      -0.12803343       0.11270586      -0.20070932       5.40897739      -2.58120137       3.20209289      -3.13553173     -17.07378684     -11.12532980      -0.05829987      -0.16136111      -0.15907273      -0.12803343       0.11270586      -0.20070932      -0.05829987      -0.16136111      -0.15907273      -0.00253364       0.00014305       0.57222597       0.92802000      -0.16200000      -0.01600000       0.02080000       0.78066000      -0.00932000      -0.18809000       0.06891000       0.02222000
W        5.05837907       3.71141854      10.40863946      58.41441091      47.96816688     -43.67084331      44.17214353      10.81959846      -1.17366524      -1.01340160      -0.01706165       0.10947177      44.17214353      10.81959846      -1.17366524      41.06427881     144.17335100     -63.15331013       0.01985452      -1.21425488       0.77906856      -1.01340160      -0.01706165       0.10947177       0.01985452      -1.21425488       0.77906856       0.01793086       0.06633201      -0.09607230      -1.50954000      -0.20922000      -0.03688000      -0.45798000      -1.54615000      -0.05582000       0.04098000      -0.74626000      -0.04500000
Se       6.85223302       4.62653826      12.11486920     -13.80121929      15.64942430     -35.55048916      12.89176230      -5.86484329       0.34250662      -0.44906675       0.25388163      -0.12131172      12.89176230      -5.86484329       0.34250662     -11.40090972      28.11549578     -27.39111186      -0.12169882      -0.26495788       0.24160924      -0.44906675       0.25388163      -0.12131172      -0.12169882      -0.26495788       0.24160924       0.04520519      -0.01593582      -0.97930106       0.60802000      -0.08327000       0.01303000      -0.15396000       0.34358000       0.00823000      -0.18085000       0.56767000       0.01457000
Se       6.49326286       4.92180891       8.65276596      55.41618747     -17.91866135      26.91665001      -3.43883644       9.94391701      -1.30608503       0.17391691       0.01823305       0.20978131      -3.43883644       9.94391701      -1.30608503      21.78034943     -49.04691795      15.97765865       0.38141986       0.10407089      -0.49731926       0.17391691       0.01823305       0.20978131       0.38141986       0.10407089      -0.49731926      -0.03013075      -0.00259387       0.65235465       0.82931000       0.18715000       0.01293000       0.11547000       0.82418000      -0.01210000      -0.52655000       0.33974000       0.01798000
W        3.26761538       6.69811809      10.31393752      83.31875776      26.46463051     -14.24055362       8.43042084      23.75902094       6.99011625      -0.17120007      -0.05316326       0.19319832       8.43042084      23.75902094       6.99011625      12.33437630      22.16582737       7.35951119       0.04091199      -0.04926935       0.00803725      -0.17120007      -0.05316326       0.19319832       0.04091199      -0.04926935       0.00803725       0.02277937       0.02966240      -0.05398995      -1.90850000      -0.09165000      -0.01631000      -0.18064000      -1.62536000       0.02185000      -0.08895000       0.23921000      -0.05059000
Se       4.92828852       7.87252173      11.94939004      -8.20486178     -16.73033693     -18.53521477      -3.19365563      -0.67294439      -0.97804570      -0.05545582      -0.17922496      -0.04549370      -3.19365563      -0.67294439      -0.97804570      -4.05750932     -45.37073143     -10.98897132       0.07810388      -0.20321940      -0.48456309      -0.05545582      -0.17922496      -0.04549370       0.07810388      -0.20321940      -0.48456309       0.00396619       0.03670769      -0.76248346       0.66568000       0.17168000       0.00170000       0.18441000       1.11008000       0.00729000      -0.01424000      -0.56169000       0.02584000
Se       4.96387651       7.61662714       8.56793296     -20.17776254      -5.14739776      24.30607928      11.01340847      -5.67463508       2.05328376       0.19057102       0.07632686      -0.05505696      11.01340847      -5.67463508       2.05328376      -5.22100596     -11.09862630      15.25445228      -0.07891404      -0.05594733      -0.19151693       0.19057102       0.07632686      -0.05505696      -0.07891404      -0.05594733      -0.19151693       0.03758591      -0.05739026       0.75577566       0.79668000       0.09995000      -0.01202000       0.02695000       0.54687000       0.00225000       0.24046000      -0.29665000       0.03079000
27
Lattice="9.769251570628482 0.0 0.0 -4.884625785314241 8.460171860164264 0.0 -0.0 0.0 20.53203602598988" Properties=species:S:1:pos:R:3:raman_tensor:R:27:born_effective_charge:R:9 susceptibility_tensor="_JSON [[-626.5070857899213, 2.2921790795708716, -0.051641615829150084], [2.29243633089117, -628.3061783675504, 0.02199937668756054], [-0.02949464035256797, -0.057024582826384985, -37.49470227411401]]" pbc="T T T"
W        0.01103925       0.96129435      10.19636325      15.34516555      -2.40095327       0.20213570     -15.41804381       5.89022326       0.05359943       0.05113378       0.04633191      -0.06397599     -15.41804381       5.89022326       0.05359943       2.44687096      11.07010598       2.93916557      -0.00472793      -0.16375669      -0.16244471       0.05113378       0.04633191      -0.06397599      -0.00472793      -0.16375669      -0.16244471      -0.00606331      -0.00337577      -0.09025170      -1.54313000       0.05958000       0.00612000       0.00768000      -1.31349000       0.00598000      -0.11799000       0.13462000      -0.03810000
Se       1.67308202       1.90793483      11.94672005      -6.35504165      -0.61513021     -20.03959982       2.77098287       0.65652127       2.83125657      -0.13905394      -0.10144819      -0.09035975       2.77098287       0.65652127       2.83125657      -1.91160883     -15.77987867     -15.17440373       0.24878830      -0.13306084      -0.16925485      -0.13905394      -0.10144819      -0.09035975       0.24878830      -0.13306084      -0.16925485      -0.01247246      -0.01739609      -0.69201341       0.69676000      -0.01806000      -0.01457000       0.01245000       0.68443000      -0.00915000      -0.19867000      -0.18044000       0.02450000
Se       1.76315452       1.82196542       8.58873521     -13.22076710      10.64382104      19.05192473       6.64089645      -2.64293157      -4.00631387       0.21058301      -0.10290094       0.19267493       6.64089645      -2.64293157      -4.00631387      -6.27291961       7.44633683      24.67788713      -0.27630217       0.30116441      -0.04932209       0.21058301      -0.10290094       0.19267493      -0.27630217       0.30116441      -0.04932209       0.05070871      -0.02796700       0.70507978       0.70407000      -0.01890000      -0.00766000      -0.03835000       0.75253000      -0.00660000       0.38053000      -0.22201000       0.01977000
W       -1.69164360       3.67275013      10.21980945      26.48175598       0.31217967       2.05073541       6.89743581       9.97717905      -1.30000094       0.13101217       0.00491403       0.41640947       6.89743581       9.97717905      -1.30000094       4.56005228      42.32522417       0.87804591       0.04352349      -0.00635189       0.79376276       0.13101217       0.00491403       0.41640947       0.04352349      -0.00635189       0.79376276       0.01670993       0.04870027      -0.06142403      -1.54862000       0.12950000       0.01347000       0.24437000      -1.58394000      -0.00128000       0.01114000      -0.04758000      -0.03729000
Se      -0.11801256       4.61450598      11.98208474      20.89465978       5.65567844     -26.44555661       5.84777391       4.43306649      -0.63935652      -0.24889378      -0.03443596       0.01900717       5.84777391       4.43306649      -0.63935652       5.54297614       1.82871602     -24.08421459      -0.04495085      -0.17578683       0.04975252      -0.24889378      -0.03443596       0.01900717      -0.04495085      -0.17578683       0.04975252      -0.03418013      -0.01084332      -0.72217839       0.80148000      -0.02502000      -0.01018000       0.04735000       0.62065000      -0.00758000       0.32938000       0.09016000       0.02433000
Se      -0.03604854       4.69480923       8.59264291       5.89958885       6.02675556      14.67303687       3.59525897       1.62719644       0.12480287       0.33888424      -0.06035033      -0.08891942       3.59525897       1.62719644       0.12480287       1.94033921      -4.92710469      18.69795599       0.07872419       0.40869237       0.10195481       0.33888424      -0.06035033      -0.08891942       0.07872419       0.40869237       0.10195481      -0.00909358       0.01851537       0.73328519       0.73801000      -0.04793000      -0.01188000      -0.03833000       0.78871000      -0.00641000      -0.17415000       0.01553000       0.01018000
W       -3.23743228       6.56767245      10.21218944      11.24523226      11.64736921      10.55941610       0.92181280      -6.89118107       1.28729296       0.36502699       0.04251030      -0.02475742       0.92181280      -6.89118107       1.28729296       7.18118847      24.84248178       9.93243390       0.02389872       0.37575517       0.24108932       0.36502699       0.04251030      -0.02475742       0.02389872       0.37575517       0.24108932       0.02109074       0.01601793       0.02688711      -1.51969000      -0.29044000       0.00854000      -0.15227000      -1.53188000       0.01902000       0.06519000      -0.22194000      -0.04596000
Se      -1.59864033       7.51011214      12.10527501      -6.15311325       1.03309319     -39.03493625       7.48642662       1.55169769      -0.00435391      -0.31511695      -0.07395117      -0.07779387       7.48642662       1.55169769      -0.00435391      -4.42009781      -6.43694013     -35.20025996      -0.12588426      -0.17275171      -0.16069771      -0.31511695      -0.07395117      -0.07779387      -0.12588426      -0.17275171      -0.16069771      -0.00415612      -0.02576998      -0.91238048       0.46540000       0.02160000      -0.00441000      -0.00688000       0.41385000      -0.00244000       0.06647000       0.02081000       0.00959000
Se      -1.58515876       7.61855084       8.55581283       6.02892795     -11.28910270      33.50503415      -1.93664455       0.70254643      -0.68896963       0.15516344      -0.01988552       0.12451860      -1.93664455       0.70254643      -0.68896963      -0.26781709     -35.66321782      32.25520919       0.05006922       0.28577704      -0.20568837       0.15516344      -0.01988552       0.12451860       0.05006922       0.28577704      -0.20568837       0.01826554       0.04081858       0.74219912       0.60158000      -0.06769000      -0.00913000      -0.04644000       0.80412000      -0.00841000      -0.14934000       0.24686000       0.02083000
W        3.32555093       0.83742024      10.32834584     -47.27442658      24.58812853      -9.60987031      24.08549669     -16.38436501       3.24239653      -0.22578038      -0.01908442      -0.37552472      24.08549669     -16.38436501       3.24239653     -20.92679023     106.40891349      -7.42021178      -0.02286992      -0.26223887       1.26700488      -0.22578038      -0.01908442      -0.37552472      -0.02286992      -0.26223887       1.26700488      -0.04781094       0.07072335      -0.00829781      -1.04647000      -0.11318000      -0.02461000      -0.07626000      -1.41400000      -0.01119000       0.23064000       0.20227000      -0.04859000
Se       4.87544269       1.94564414      11.96069008      14.24412549      -0.54933609     -17.49943428      -1.43726794       1.22765118      -2.44577591      -0.20811635      -0.03429667       0.11988508      -1.43726794       1.22765118      -2.44577591       3.06976891     -13.01381377     -17.86510385      -0.29933407      -0.36518115      -0.14178645      -0.20811635      -0.03429667       0.11988508      -0.29933407      -0.36518115      -0.14178645       0.00342372      -0.01048793      -0.72156471       0.71439000       0.05514000      -0.00398000      -0.02103000       0.71769000      -0.00942000       0.18637000      -0.31620000       0.02371000
Se       4.87485653       1.78689380       8.54750897       6.46437809       9.79274197      34.90973832       7.92500839       5.52172442       4.86518504       0.25874954       0.05208443       0.09942104       7.92500839       5.52172442       4.86518504       1.74212225      10.03674727      36.19954549       0.23794291       0.33681374       0.14241783       0.25874954       0.05208443       0.09942104       0.23794291       0.33681374       0.14241783      -0.00424350      -0.01183671       0.72833135       0.76017000       0.00235000      -0.00260000      -0.01440000       0.58771000       0.00109000      -0.22119000      -0.04115000       0.00666000
W        1.64309042       3.79291192      10.29747500       6.83767380     -23.70953733      -7.41131720     -15.27937126      -2.82892127       1.68165015      -0.20733248      -0.00797800      -0.19125381     -15.27937126      -2.82892127       1.68165015      21.86863019     -22.99438322     -14.12393976      -0.03750714      -0.20518193      -0.08400312      -0.20733248      -0.00797800      -0.19125381      -0.03750714      -0.20518193      -0.08400312       0.01204154      -0.01816314      -0.01329363      -1.17372000      -0.32457000      -0.01531000       0.11536000      -1.44859000      -0.02023000      -0.07918000       0.18635000      -0.01657000
Se       3.17793754       4.81516641      11.96342547       9.03297426       3.67636359     -15.66709577       6.82515877       4.11005912      -0.66816579      -0.18977868       0.03169202       0.15252304       6.82515877       4.11005912      -0.66816579      10.26903883     -10.61940888     -15.70211751      -0.01676028      -0.03271769      -0.11189154      -0.18977868       0.03169202       0.15252304      -0.01676028      -0.03271769      -0.11189154      -0.00053674      -0.00020941      -0.72707635       0.68682000      -0.00351000      -0.00490000      -0.07848000       0.80237000       0.00354000       0.10155000       0.04471000       0.03416000
Se       3.34303789       4.67028841       8.59117752     -27.07278384      18.05241055      19.02857212      11.64839633      -4.72519720       2.68524078       0.14800941       0.03882583      -0.20395762      11.64839633      -4.72519720       2.68524078     -12.13647327      14.13616142      17.30261856       0.01628222       0.02938240       0.34255094       0.14800941       0.03882583      -0.20395762       0.01628222       0.02938240       0.34255094       0.01814112       0.01855441       0.69705563       0.69519000       0.04706000      -0.00940000       0.02915000       0.80001000       0.00736000       0.24165000      -0.15340000       0.01963000
W       -0.02168774       6.60245098      10.33870124      -7.85713869     -25.38570557     -12.17819734     -29.19960888       4.23250313       1.79318056      -0.08395224      -0.00689403       0.13662746     -29.19960888       4.23250313       1.79318056       7.31444004     -28.64246753     -13.08378729       0.11556953      -0.11417871      -0.56155931      -0.08395224      -0.00689403       0.13662746       0.11556953      -0.11417871      -0.56155931      -0.00604289      -0.02555480       0.00193814      -1.68892000       0.22240000      -0.01190000       0.30548000      -1.28115000       0.01969000      -0.11893000       0.18629000      -0.05149000
Se       1.58154414       7.54811453      11.99048630      13.49429058       6.87847383     -18.04185186       6.57660337      -1.50631247       3.53293556      -0.23398994       0.04781847       0.09245226       6.57660337      -1.50631247       3.53293556       2.99758848      -1.31130176     -22.26881158       0.07868286      -0.08783450      -0.02632371      -0.23398994       0.04781847       0.09245226       0.07868286      -0.08783450      -0.02632371      -0.01494639      -0.00622613      -0.74337544       0.71562000       0.01328000       0.00076000      -0.04262000       0.64405000      -0.00213000       0.06603000       0.05657000       0.03065000
Se       1.64846351       7.48158593       8.66141844      -9.75626649       7.94436420      16.23541468       8.06154186      -4.43221753      -0.74102866       0.07614741       0.03603926      -0.19768179       8.06154186      -4.43221753      -0.74102866      -5.83784890      -0.65432165      19.33517412      -0.07089001       0.11264619       0.29746638       0.07614741       0.03603926      -0.19768179      -0.07089001       0.11264619       0.29746638      -0.00729625       0.03578904       0.59554732       0.93181000      -0.02233000       0.00041000      -0.01597000       0.98940000      -0.00144000       0.14033000      -0.09760000       0.02752000
W        6.51999850       0.93921585      10.28311420       3.19126579     -20.81141878      -0.69700804     -20.62483223      -3.41750053      -2.63162063      -0.14803747       0.02242827      -0.02664684     -20.62483223      -3.41750053      -2.63162063      11.75849282      11.87327321      -3.71464926      -0.12058737      -0.10014467      -0.09181842      -0.14803747       0.02242827      -0.02664684      -0.12058737      -0.10014467      -0.09181842       0.01045863      -0.00679477       0.02288025      -1.51662000       0.24918000       0.01228000      -0.25526000      -1.30669000      -0.01275000      -0.03935000       0.15361000      -0.06490000
Se       8.20685517       1.84707239      11.86827296     -12.28552014       7.12547397     -18.71833435       5.29879077      -5.21181540      -1.23381385      -0.09136923       0.17434564      -0.06956995       5.29879077      -5.21181540      -1.23381385      -7.90479198     -11.98227466     -18.07254205       0.02096838       0.00870096       0.00720828      -0.09136923       0.17434564      -0.06956995       0.02096838       0.00870096       0.00720828       0.01619444       0.01813523      -0.60086849       0.86756000      -0.07309000       0.01433000      -0.05037000       0.84996000       0.00876000      -0.17945000       0.03304000       0.02795000
Se       8.01918784       1.83212544       8.45782724      21.98700992       8.87710767      28.53223983       3.36940125       1.57534687      -0.95333499       0.28503086      -0.01903978      -0.00369510       3.36940125       1.57534687      -0.95333499       7.64539042      -8.18786735      29.38131756       0.11385176       0.18381984      -0.10278509       0.28503086      -0.01903978      -0.00369510       0.11385176       0.18381984      -0.10278509      -0.03826245      -0.02062046       0.87857250       0.58801000       0.01966000       0.01188000       0.06052000       0.50743000      -0.00116000      -0.15620000      -0.13450000       0.01340000
W        4.86977652       3.84380972      10.27227033     -19.75219147     -17.99179214       8.00419355     -20.62580827       1.41227115      -3.37990295       0.19593558      -0.03740632       0.21687426     -20.62580827       1.41227115      -3.37990295     -25.49826269     -44.69328129       3.44752910      -0.02525449       0.19265999      -0.77403651       0.19593558      -0.03740632       0.21687426      -0.02525449       0.19265999      -0.77403651      -0.00970516      -0.04702618       0.08784078      -1.46938000       0.04980000       0.02126000      -0.12412000      -1.28443000      -0.00839000       0.05750000      -0.01949000      -0.03332000
Se       6.55888012       4.70829079      12.01989175     -21.05638973      -1.12465446     -35.50721367       4.84002899      -1.69163986      -1.07656800      -0.36785177      -0.10496320      -0.03880347       4.84002899      -1.69163986      -1.07656800      -4.37150338      -7.54766454     -32.05361312       0.16558913      -0.42270017       0.03327814      -0.36785177      -0.10496320      -0.03880347       0.16558913      -0.42270017       0.03327814       0.03333777       0.00391599      -0.83154508       0.59165000       0.04453000       0.00970000       0.02461000       0.57049000       0.00903000      -0.29941000       0.01739000       0.00745000
Se       6.45679144       4.68396536       8.48459499       4.78759363       3.54651390      32.67144945       4.72135185      -0.81924391      -0.82756988       0.29217873       0.11785665      -0.09560648       4.72135185      -0.81924391      -0.82756988       4.69422811      -3.05033258      27.60804472      -0.08566183       0.16613458      -0.05574644       0.29217873       0.11785665      -0.09560648      -0.08566183       0.16613458      -0.05574644      -0.02518792      -0.01747353       0.81560305       0.73151000       0.07797000       0.01527000      -0.00723000       0.68986000       0.00314000       0.03725000       0.01434000       0.02080000
W        3.22824918       6.61700717      10.29669346      15.98711780     -24.61104744      -7.69736782     -19.88306333       7.28993762      -3.23984908      -0.17575216      -0.06388623       0.22774998     -19.88306333       7.28993762      -3.23984908      -2.50780622      -1.66925725     -10.19924303      -0.10357696      -0.27185657       0.21366911      -0.17575216      -0.06388623       0.22774998      -0.10357696      -0.27185657       0.21366911       0.01335797      -0.01599213      -0.04082360      -1.42496000       0.05031000       0.00298000       0.04672000      -1.74194000       0.01352000      -0.15418000      -0.05010000      -0.03902000
Se       4.91999048       7.56306149      11.85674525      -8.30526472       4.07080865     -11.11650654       7.57775158      -1.42286078       0.15421485      -0.12042653       0.06118365       0.03583975       7.57775158      -1.42286078       0.15421485      -1.24682862      -3.51716368     -17.84748484       0.01349232      -0.19599525       0.13996585      -0.12042653       0.06118365       0.03583975       0.01349232      -0.19599525       0.13996585       0.01732093       0.00474861      -0.57301058       1.02517000      -0.08521000       0.00800000       0.00724000       0.96224000       0.00939000      -0.04233000      -0.00892000       0.02889000
Se       4.86538036       7.56413611       8.51908045      -2.76455866      -1.20817139      19.91000798      -0.08137901       1.85992163       1.71086722       0.24766903       0.00915093       0.03043135      -0.08137901       1.85992163       1.71086722       0.07320316     -10.95967437      23.95341930       0.02705353       0.31197113      -0.15578775       0.24766903       0.00915093       0.03043135       0.02705353       0.31197113      -0.15578775      -0.01566889      -0.00616246       0.79243945       0.61632000       0.04756000       0.00551000       0.06705000       0.72061000       0.00807000       0.01631000       0.09080000       0.02521000
27
Lattice="10.06777101740488 0.0 0.0 -5.03388550870244 8.718689701072627 0.0 -0.0 0.0 20.49596823723286" Properties=species:S:1:pos:R:3:raman_tensor:R:27:born_effective_charge:R:9 susceptibility_tensor="_JSON [[-741.9117747788106, -11.83677530637872, -0.17568632020417746], [-11.836775163211653, -760.750700118708, 0.21117199561781977], [-0.17589419878459966, 0.21119619085204244, -39.04688202996302]]" pbc="T T T"
W       -0.10420143       0.88455436      10.11196853      32.05832145      21.70695319      44.55476511       6.58573961      31.21399432      -1.96309971       1.54461274      -0.02757790       0.85735891       6.58573961      31.21399432      -1.96309971      11.03862466     172.84616516      54.11712970      -0.34861959       1.68792194       0.61570284       1.54461274      -0.02757790       0.85735891      -0.34861959       1.68792194       0.61570284       0.04460031       0.06770342       0.22310662      -0.80768000       0.00074000       0.05814000       0.27104000      -0.40871000       0.01004000       0.05915000      -0.07636000       0.00704000
Se       1.55698079       1.87522303      11.85832409      17.42507296     -10.55561668     -10.78067112      -7.48480893       3.84291110      -0.01113096      -0.28837075      -0.12133882      -0.05360576      -7.48480893       3.84291110      -0.01113096       3.38401661     -37.43689216       0.79265114       0.00003168      -0.55138221      -0.39462544      -0.28837075      -0.12133882      -0.05360576       0.00003168      -0.55138221      -0.39462544      -0.05976640      -0.00644741      -0.70689608       0.82152000       0.17737000      -0.00618000       0.21986000       0.74506000       0.01064000       0.31123000      -0.09963000       0.00490000
Se       1.56110857       1.92455511       8.62948925      21.82000734      -1.01495174       8.15369593      -2.46741812      -0.71898675      -4.09547843      -0.16029783       0.16771522       0.33339401      -2.46741812      -0.71898675      -4.09547843       8.63557172     -34.29651859      -4.29713560      -0.06506279       0.03458654      -0.50774975      -0.16029783       0.16771522       0.33339401      -0.06506279       0.03458654      -0.50774975       0.03481941      -0.03639556       0.63381896       0.65555000      -0.09101000       0.00173000      -0.09775000       0.72845000       0.00334000      -0.13406000       0.19064000       0.03427000
W       -1.65232258       3.98502512      10.24768209     -15.44729261     -86.00599999      12.94724069     -44.92175338     -25.16008309       0.22596987       0.59021027       0.18384440      -0.24971999     -44.92175338     -25.16008309       0.22596987     -31.19617331    -176.27711246       5.55239118       0.29537393       0.34803723      -1.05615541       0.59021027       0.18384440      -0.24971999       0.29537393       0.34803723      -1.05615541      -0.01082255      -0.10794846       0.08696933      -1.36319000      -0.17119000       0.00168000      -0.05960000      -1.57685000       0.01692000      -0.20555000      -0.05823000       0.00461000
Se       0.06815881       4.89706450      12.03018094     -13.94845979       5.94847150     -19.58478957      11.33269877      -0.78455247       6.34787806      -0.36846915       0.08852569      -0.29436020      11.33269877      -0.78455247       6.34787806      -2.18750783       6.83308167     -21.39145040      -0.07394009      -0.13563022       0.16343409      -0.36846915       0.08852569      -0.29436020      -0.07394009      -0.13563022       0.16343409      -0.01569727      -0.01780316      -0.92731871       0.91085000      -0.00863000       0.00067000       0.08121000       0.61584000      -0.00600000      -0.09400000       0.15807000       0.01108000
Se      -0.01036980       4.83373822       8.66855220      -0.34262137      20.11981347      -4.00395993      16.00693802       1.40453161      -2.02336928       0.07065485      -0.37760076       0.56160058      16.00693802       1.40453161      -2.02336928      -3.01885917      16.54202012       9.67718113      -0.03429474      -0.12689949       0.27463105       0.07065485      -0.37760076       0.56160058      -0.03429474      -0.12689949       0.27463105       0.03808040       0.02922730       0.64218753       0.91989000      -0.05612000       0.00694000      -0.00193000       0.93633000       0.00019000       0.54032000      -0.08801000       0.04214000
Mo      -3.20336338       6.84870191      10.25332004    -107.96071604     -16.49834111     -15.77468096     -50.02104259     -26.53818607     -10.24514217      -0.85074465      -0.02759873      -0.76223257     -50.02104259     -26.53818607     -10.24514217     -35.75780922     -17.39962215     -25.11154731       0.17872112      -0.84550282      -0.24009483      -0.85074465      -0.02759873      -0.76223257       0.17872112      -0.84550282      -0.24009483      -0.09829956      -0.01995203      -0.08434856      -2.14012000       0.48589000      -0.01716000      -0.54608000      -1.55509000      -0.01160000       0.27656000      -0.19098000      -0.11824000
Se      -1.60852778       7.71191260      11.90352838       4.34206281       8.65973914      -9.25009053      10.27250752       1.68363090      -5.85281069       0.02211847       0.04335862       0.28938456      10.27250752       1.68363090      -5.85281069       0.52734487       5.27405321     -20.83057191       0.21900394      -0.07120370      -0.17682154       0.02211847       0.04335862       0.28938456       0.21900394      -0.07120370      -0.17682154       0.02829854      -0.02589637      -0.73455021       1.14026000      -0.06572000      -0.00990000      -0.04997000       0.92890000      -0.00291000      -0.24934000       0.15289000       0.03135000
Se      -1.62564299       7.89947517       8.39128579      13.18327023     -19.93346620      40.51655616     -10.12213593      -1.59052109       0.57030119       0.30769263       0.03346198       0.19341640     -10.12213593      -1.59052109       0.57030119       3.83567288     -50.86210774      40.14407736      -0.08349968       0.43712143      -0.38427282       0.30769263       0.03346198       0.19341640      -0.08349968       0.43712143      -0.38427282       0.02097069       0.02954881       1.08857623       0.34411000      -0.05064000      -0.00654000      -0.02185000       0.45825000      -0.00697000       0.12243000       0.55939000      -0.01122000
Mo       3.36706534       0.81156302      10.25684376      -6.19067703      20.34549963     -13.59042503      21.08447547      10.62807794      -0.31594376      -0.34082195      -0.17386717      -0.68418958      21.08447547      10.62807794      -0.31594376       1.61346357     169.97849522      -7.66673047       0.05317218      -0.20545274       0.80630377      -0.34082195      -0.17386717      -0.68418958       0.05317218      -0.20545274       0.80630377       0.00448078       0.10505478      -0.01240863      -1.31741000      -0.21826000      -0.02927000       0.50523000      -1.50877000       0.02797000       0.02073000      -0.07972000      -0.08888000
Se       5.00478965       1.86918237      11.77224465     -13.32804265      10.83660552      15.27443922       1.64162123       0.33048148       8.45189532       0.04473517       0.34414297      -0.03651866       1.64162123       0.33048148       8.45189532       4.71101931     -23.84655523      11.36850006       0.21515500      -0.29148369       0.03935845       0.04473517       0.34414297      -0.03651866       0.21515500      -0.29148369       0.03935845      -0.00737044      -0.00444959      -0.54404316       0.88945000       0.00322000      -0.00973000      -0.12096000       1.00561000       0.00111000      -0.20838000      -0.11465000       0.03497000
Se       4.90974989       1.92344765       8.66522984       3.15672923      10.27181272      -1.07725434       2.27706051       5.11538397      -2.24950302      -0.03221433      -0.30598345      -0.22060762       2.27706051       5.11538397      -2.24950302      15.93257878     -18.04854577       2.54223370      -0.03405015       0.47174696      -0.11627807      -0.03221433      -0.30598345      -0.22060762      -0.03405015       0.47174696      -0.11627807      -0.02224215      -0.03614354       0.62899110       0.70166000       0.10469000      -0.00985000      -0.09909000       0.80095000       0.01444000       0.02610000       0.27284000       0.01979000
W        1.68574758       3.88897859      10.26872373     -26.39396777      -1.81319314      12.43321463       6.84851416     -15.77804612       4.42096231       0.11782797       0.06108283      -0.38452617       6.84851416     -15.77804612       4.42096231      -8.10469972     -26.60440917      10.48500705      -0.18738799       0.06297269      -0.15148627       0.11782797       0.06108283      -0.38452617      -0.18738799       0.06297269      -0.15148627       0.00123953       0.02166345       0.11157872      -2.07934000      -0.44335000       0.02357000      -0.01953000      -1.81645000      -0.01562000       0.25093000      -0.30121000      -0.01325000
Se       3.48012641       4.84954462      12.15179962     -12.83218073      13.66300709     -38.58613224       7.58128229      -5.34254715      -5.20364694      -0.29414799      -0.10493094      -0.07825582       7.58128229      -5.34254715      -5.20364694     -12.04682500       6.84616497     -35.60528360      -0.01312028      -0.26842101       0.27102027      -0.29414799      -0.10493094      -0.07825582      -0.01312028      -0.26842101       0.27102027      -0.01374303       0.04996094      -1.17924312       0.24167000       0.01985000       0.00667000      -0.04350000       0.27713000      -0.00224000      -0.02935000      -0.05258000      -0.03588000
Se       3.31028311       4.89233265       8.59757442      13.79501630       9.13774095       6.10221348      10.29893343       4.06986567      -1.15906409      -0.16396524       0.14659248      -0.09513524      10.29893343       4.06986567      -1.15906409       8.97820674     -17.66217459      15.98923762      -0.17414380      -0.16905443      -0.02177533      -0.16396524       0.14659248      -0.09513524      -0.17414380      -0.16905443      -0.02177533       0.00979350      -0.00058755       0.70286643       0.73427000      -0.18984000      -0.00905000      -0.02291000       0.65514000       0.00157000      -0.33122000       0.24973000       0.04036000
Mo       0.03654601       6.77178414      10.26983118      28.75467384      -8.57504912       4.94891151     -27.08118082       8.58574829      11.26585567      -0.04512195      -0.05751080      -0.24844370     -27.08118082       8.58574829      11.26585567       2.69526275      11.37964716       1.07150375      -0.07136418      -0.16063551       0.51993716      -0.04512195      -0.05751080      -0.24844370      -0.07136418      -0.16063551       0.51993716       0.01041917       0.00214084       0.08776093      -2.44118000       0.13976000      -0.01725000      -0.13295000      -2.11945000      -0.03088000      -0.26208000       0.09840000      -0.11424000
Se       1.74454336       7.81470454      11.94571235       5.48465566     -11.34475863     -27.74670072       0.40141585       1.07216036       0.96413207      -0.27328389      -0.13830696       0.17255082       0.40141585       1.07216036       0.96413207      10.67569226     -40.30336819      -5.73074842       0.02137683       0.03797920      -0.58428957      -0.27328389      -0.13830696       0.17255082       0.02137683       0.03797920      -0.58428957       0.03476134      -0.04149283      -0.79214081       0.76310000      -0.07546000       0.00962000      -0.23880000       0.78708000       0.00125000      -0.02951000      -0.06294000       0.02105000
Se       1.64306023       7.54700251       8.66200815      31.84404169      29.25899445     -16.13427442      18.96641943       4.00931302      -1.79676774       0.07673408      -0.12841414       0.28552566      18.96641943       4.00931302      -1.79676774       7.09505310      42.01633592     -11.99482127      -0.13556075      -0.13513676      -0.04002631       0.07673408      -0.12841414       0.28552566      -0.13556075      -0.13513676      -0.04002631      -0.02450682       0.00123788       0.60876174       1.04704000       0.05519000       0.00775000      -0.19641000       0.88360000      -0.01895000      -0.08441000      -0.82071000       0.02293000
W        6.75950146       0.86985542      10.26127358     -19.73970099      52.74023233     -19.55785456      13.68270306      22.36056503      -0.98615880      -0.75851290       0.28816663      -0.37068541      13.68270306      22.36056503      -0.98615880     -22.47828158     195.91916485     -31.41308149       0.12854654      -0.63776060       0.90377291      -0.75851290       0.28816663      -0.37068541       0.12854654      -0.63776060       0.90377291      -0.01532733       0.09245508       0.03845436      -1.03638000      -0.08398000      -0.00795000       0.35348000      -0.68977000       0.01938000      -0.04620000       0.09404000       0.00397000
Se       8.40417253       1.99210985      11.87896302      -7.50917491      -5.47694199      -6.75570894       0.00822823      -3.33947482      -1.10433975      -0.09662551      -0.08502335      -0.15873260       0.00822823      -3.33947482      -1.10433975       0.47909697     -35.21196059      -4.99499935       0.08960799      -0.23994107      -0.20004301      -0.09662551      -0.08502335      -0.15873260       0.08960799      -0.23994107      -0.20004301       0.04571662      -0.01350660      -0.72427210       0.67711000      -0.10054000       0.01351000      -0.08776000       0.59444000      -0.00557000      -0.11597000      -0.46412000       0.01849000
Se       8.41887148       1.95526181       8.64650378     -26.42847387       8.92046622     -12.91988667       5.02907490      -4.41764197       5.99827275      -0.39234532       0.19864882      -0.32818908       5.02907490      -4.41764197       5.99827275      -8.19892664     -27.03312288     -17.60404255      -0.02659204       0.08831184       0.31374265      -0.39234532       0.19864882      -0.32818908      -0.02659204       0.08831184       0.31374265      -0.01457587       0.01442052       0.66257674       0.53001000      -0.02009000       0.00559000      -0.02685000       0.48245000       0.01473000       0.17126000       0.63598000       0.01373000
W        4.90874311       3.96660110      10.26228035      94.98874644     -64.90648422      25.04616775     -26.41300247      23.99044852       6.56966748       0.67526356       0.15845608       1.60327615     -26.41300247      23.99044852       6.56966748      23.77294476    -142.80881601       9.54783088       0.09137923       0.15370392      -1.09874394       0.67526356       0.15845608       1.60327615       0.09137923       0.15370392      -1.09874394       0.08073831      -0.08642095       0.09121598      -1.59081000       0.31278000      -0.05385000       0.45348000      -1.11062000       0.01952000      -0.17914000      -0.10571000       0.01596000
Se       6.75909875       4.91156209      11.88067454      -5.14338538      10.54234367      -6.86441427      16.70026223      -4.99850646      -2.31243828      -0.49984913      -0.11163781      -0.20028353      16.70026223      -4.99850646      -2.31243828      -4.92584653      14.72026112      -1.58377192      -0.10823411       0.15915473       0.30614664      -0.49984913      -0.11163781      -0.20028353      -0.10823411       0.15915473       0.30614664      -0.00443562       0.01328692      -0.69850525       1.04308000      -0.08975000       0.00762000       0.05531000       0.72162000       0.00987000       0.14276000       0.26214000       0.02023000
Se       6.56378399       4.80806540       8.69412434      36.67138702      27.45002660     -11.92493553      24.72517075       5.71731779     -10.36201749       0.39248795       0.09746796       0.15098484      24.72517075       5.71731779     -10.36201749      23.01716259      42.08816877     -15.97364120      -0.06659939      -0.13741381       0.73034193       0.39248795       0.09746796       0.15098484      -0.06659939      -0.13741381       0.73034193      -0.03281033       0.04236259       0.59795387       0.89028000      -0.09912000      -0.00152000       0.01429000       0.80759000       0.01541000      -0.57373000      -0.33387000       0.02772000
W        3.48365013       6.77933497      10.13854745    -108.89341803     -56.66643029      69.99410807     -23.52782434     -46.48798126       3.02889307       1.25921171      -0.11267856      -1.29864680     -23.52782434     -46.48798126       3.02889307     -27.22984202     -37.69140464      66.84913588       0.17265497       1.31972632       0.16368856       1.25921171      -0.11267856      -1.29864680       0.17265497       1.31972632       0.16368856      -0.07438782      -0.04723921       0.24709692      -1.24293000       0.19383000       0.03774000      -0.44560000      -2.02903000      -0.05076000       0.33051000       0.32823000      -0.01881000
Se       4.91931427       7.75459995      11.91319344      52.45394093      14.93105701     -28.04963498       4.22340817      10.95717547       4.58254050      -0.31545434       0.08347707       0.55394353       4.22340817      10.95717547       4.58254050      15.48398327       0.88470331     -29.50666738      -0.33214893      -0.41297919       0.06129172      -0.31545434       0.08347707       0.55394353      -0.33214893      -0.41297919       0.06129172      -0.03328051       0.00185578      -0.78293288       0.86772000       0.26933000      -0.00993000       0.34919000       0.75335000      -0.00198000       0.12872000       0.24111000      -0.00441000
Se       5.07163965       7.75047216       8.56173315       8.33012153      18.82872846       2.41385239      15.66031018       1.48842854      -3.07365803      -0.20858425      -0.12444825       0.46141161      15.66031018       1.48842854      -3.07365803      11.17095750      -3.42739530       4.52906458       0.27984015      -0.40171747      -0.20785253      -0.20858425      -0.12444825       0.46141161       0.27984015      -0.40171747      -0.20785253       0.07832182      -0.02149248       0.73235779       0.84146000       0.00105000       0.00693000      -0.09155000       0.63295000      -0.01291000       0.16224000      -0.39474000       0.03035000
27
Lattice="9.501053977890738 0.0 0.0 -4.750526988945369 8.22791274485338 0.0 -0.0 0.0 19.57312129985271" Properties=species:S:1:pos:R:3:raman_tensor:R:27:born_effective_charge:R:9 susceptibility_tensor="_JSON [[-595.6927574913722, 3.288283460532332, 0.040149793876964476], [3.288238165077361, -602.1686780332527, -0.13565927882911327], [0.05382049793999083, -0.14149581737371938, -33.55605863908395]]" pbc="T T T"
Mo      -0.02631792       0.83818298       9.67720352      52.31175608     -47.45605016      29.77250533     -16.64237941       7.60924472       1.65481402       1.09256339      -0.01462252       0.26028860     -16.64237941       7.60924472       1.65481402       6.56056251     -14.98778053      18.96600810       0.22262996       1.13732501       0.23629546       1.09256339      -0.01462252       0.26028860       0.22262996       1.13732501       0.23629546       0.04169388      -0.00921160       0.06831663      -1.29570000      -0.48524000      -0.02197000       0.04838000      -0.94361000      -0.00357000      -0.14156000       0.42590000      -0.08522000
S        1.49793617       1.80234994      11.32069584      -5.90569305       7.32507862     -19.80982994       8.54152247      -3.97338470       1.47309643      -0.31951559      -0.00828367      -0.06231871       8.54152247      -3.97338470       1.47309643       0.40028381       5.32816946     -17.20135822      -0.12442441      -0.04713885      -0.07100715      -0.31951559      -0.00828367      -0.06231871      -0.12442441      -0.04713885      -0.07100715      -0.01090711      -0.01931825      -0.51452395       0.68505000       0.16722000       0.01382000       0.20588000       0.54506000      -0.01434000       0.08169000       0.09746000       0.03079000
Se       1.59332675       1.71142485       8.06848506     -21.74862663       9.54012778      17.50536399      10.57200615      -4.85900495       2.16849850       0.30374613      -0.09404232      -0.07648762      10.57200615      -4.85900495       2.16849850      -4.73474398      13.14398122      15.65799562       0.06130083       0.18425308       0.43512606       0.30374613      -0.09404232      -0.07648762       0.06130083       0.18425308       0.43512606       0.03841054       0.03671922       0.87166325       1.07405000      -0.07623000       0.00076000      -0.04562000       0.87138000      -0.01155000       0.40956000      -0.25822000       0.07413000
Mo      -1.45290117       3.58275244       9.76470823     -44.51565283      -1.52682949     -18.42112526     -20.92038125     -27.81215974       2.91778552      -0.68244563       0.15111384      -0.51635010     -20.92038125     -27.81215974       2.91778552     -13.88571661      42.93439389     -16.11831037       0.06688262      -0.47638592      -0.19731308      -0.68244563       0.15111384      -0.51635010       0.06688262      -0.47638592      -0.19731308      -0.03309904       0.01890874      -0.08700297      -1.09675000      -0.34134000      -0.03422000       0.33693000      -1.44790000      -0.01686000       0.27203000      -0.34863000      -0.07796000
S        0.00836093       4.47338124      11.29228768       4.55237749       8.65815727      -4.30393141      14.19363354       4.40153649       3.92015132       0.12342021      -0.05159632       0.15232125      14.19363354       4.40153649       3.92015132       1.86102906      -9.96779453       8.14722231      -0.07450448       0.11024409       0.18716796       0.12342021      -0.05159632       0.15232125      -0.07450448       0.11024409       0.18716796       0.01312314      -0.01027535      -0.51745424       0.88997000       0.02781000      -0.00260000       0.04243000       0.78025000       0.00404000       0.20000000       0.04065000       0.04182000
S       -0.03163851       4.65589649       8.21765161      13.76779729      -1.94318514      17.03650974       6.76016120       2.27649970      -3.29120350      -0.21059421       0.16470227       0.29428688       6.76016120       2.27649970      -3.29120350       1.19431601     -33.07461510      -0.25509848       0.10637929      -0.33214367      -0.28012327      -0.21059421       0.16470227       0.29428688       0.10637929      -0.33214367      -0.28012327       0.02048463       0.01216301       0.51080160       0.71419000       0.05670000      -0.01390000       0.22185000       0.95879000      -0.00582000      -0.36698000       0.48172000       0.02943000
Mo      -3.15197466       6.31554060       9.89582277       8.31880001     -16.08721594     -26.19235465      -8.92516809      -2.04462632      -2.32036640      -0.25549957       0.11760737       0.03642120      -8.92516809      -2.04462632      -2.32036640     -19.91270542      34.04594790     -21.61891617      -0.17915184      -0.59489061       0.14990121      -0.25549957       0.11760737       0.03642120      -0.17915184      -0.59489061       0.14990121      -0.00403014       0.01082994      -0.06018059      -1.57086000      -0.04955000      -0.01013000       0.15578000      -0.62718000      -0.01247000      -0.04426000       0.11127000      -0.06779000
S       -1.69736329       7.40303124      11.42226210      23.32587408       0.59274834      -8.77773391       1.13945260       4.31330019       3.82650478      -0.05903290      -0.05277453       0.39552089       1.13945260       4.31330019       3.82650478      10.96558612     -32.48700956      -1.08009991       0.14901707       0.13518251      -0.19618064      -0.05903290      -0.05277453       0.39552089       0.14901707       0.13518251      -0.19618064       0.01034294       0.01943133      -0.62563008       0.62322000      -0.07041000      -0.01205000       0.08977000       0.43865000       0.01193000       0.16019000      -0.27282000       0.02796000
S       -1.55741277       7.23476757       8.29242490     -13.90315391       9.44175686      13.23735242       7.19926142      -1.24507386      -1.29236704       0.19677987       0.08169816       0.11179959       7.19926142      -1.24507386      -1.29236704       1.44551102      -8.64236788      10.06485897      -0.03643268       0.08906128      -0.00440759       0.19677987       0.08169816       0.11179959      -0.03643268       0.08906128      -0.00440759       0.01116620       0.00317193       0.48955623       0.92338000       0.01656000      -0.00749000       0.00328000       0.67810000       0.00995000       0.05871000      -0.07671000       0.02748000
Mo       3.13306756       0.92597272       9.78931596     -20.18910187     -15.08956160      -5.65134093     -10.35291101      -7.57981169      -4.28353485      -0.43276810      -0.19761607      -0.21316197     -10.35291101      -7.57981169      -4.28353485       7.87795558     -15.14734169     -13.62799342      -0.15912784      -0.29878966      -0.03720556      -0.43276810      -0.19761607      -0.21316197      -0.15912784      -0.29878966      -0.03720556      -0.00917018       0.01359898      -0.06786849      -2.05745000       0.13351000       0.02347000       0.13396000      -1.75887000       0.00942000      -0.29372000       0.39869000      -0.07916000
Se       4.67670380       1.93431958      11.44582472       3.46242451      -0.37573693     -30.42745743       7.20995264       1.38306348       1.53896128      -0.21033721       0.21464963       0.04203290       7.20995264       1.38306348       1.53896128      -0.46542522     -19.14605841     -33.19160903      -0.02477798      -0.18105268      -0.19318600      -0.21033721       0.21464963       0.04203290      -0.02477798      -0.18105268      -0.19318600       0.02345868      -0.00962739      -0.80018148       1.09779000      -0.05316000       0.00830000      -0.24470000       1.17750000       0.00431000       0.04386000      -0.04606000       0.06462000
S        4.58653880       1.89451016       8.06905512      18.22711496       3.19430367      24.00973084       6.26928442      -0.43705316      -0.81496081       0.06209740       0.06923981      -0.09945742       6.26928442      -0.43705316      -0.81496081       2.82219100      -8.65231427      26.76147492       0.20374547       0.09755956       0.00445844       0.06209740       0.06923981      -0.09945742       0.20374547       0.09755956       0.00445844      -0.06492765       0.01005591       0.71564499       0.39603000       0.12151000       0.01032000       0.05909000       0.65553000      -0.00589000      -0.37294000      -0.02248000       0.02395000
Mo       1.49974137       3.68612391       9.74323584      39.05904656     -29.87702605       2.67133997     -29.55827961      16.64061192       1.69865263       0.36086940       0.08193438       0.48688386     -29.55827961      16.64061192       1.69865263       9.00818417       7.24405529       6.50879587      -0.14367312       0.37110814      -0.49137223       0.36086940       0.08193438       0.48688386      -0.14367312       0.37110814      -0.49137223       0.05158767      -0.02586851       0.06281127      -1.31415000      -0.17892000       0.00112000      -0.40132000      -1.59808000       0.00247000      -0.23656000      -0.14656000      -0.08905000
Se       3.20147515       4.64031476      11.47850834     -16.06129892      -1.20634922      -8.77323504       2.72855330     -13.91772288       2.09222679      -0.20109947       0.16815576      -0.30846776       2.72855330     -13.91772288       2.09222679     -16.90205216     -11.22869769     -13.11560465       0.14316107      -0.32851688      -0.27762677      -0.20109947       0.16815576      -0.30846776       0.14316107      -0.32851688      -0.27762677      -0.01320677      -0.04818111      -0.81525498       0.81867000      -0.00442000       0.00860000       0.05600000       0.85236000      -0.00229000      -0.21066000      -0.03536000       0.07039000
Se       3.10570452       4.65532643       8.15228436       1.03525421       3.61784614      20.17727715       3.37744460      -0.32423817      -3.74056935       0.22418961      -0.11153055      -0.20919959       3.37744460      -0.32423817      -3.74056935       4.88823009      -6.10673688      41.08509941      -0.09349728       0.68588790       0.29142772       0.22418961      -0.11153055      -0.20919959      -0.09349728       0.68588790       0.29142772      -0.03700311       0.05321063       0.77564532       0.71082000       0.01223000       0.02234000      -0.03866000       1.17688000      -0.00476000       0.08010000       0.27573000       0.05722000
Mo       0.03315868       6.34195353       9.84594224     -57.13626625      -6.14854433      -5.31950055       9.07459784      -2.35996301      -3.58706525       0.00565695      -0.11918705      -0.38733494       9.07459784      -2.35996301      -3.58706525      -8.96435798      76.01606134       0.84646345       0.04700483      -0.01259288       1.01125194       0.00565695      -0.11918705      -0.38733494       0.04700483      -0.01259288       1.01125194      -0.02207938       0.04746350       0.11112735      -1.76046000      -0.38636000       0.00686000      -0.26933000      -1.54293000       0.00145000       0.24445000      -0.43938000      -0.07761000
Se       1.63418128       7.43704501      11.56734320     -19.90573489       6.82373608     -20.01474950       4.63470518     -12.39537982      -2.28923892      -0.10739513      -0.00412452      -0.23010280       4.63470518     -12.39537982      -2.28923892     -26.30471948      -9.77224668     -33.90796079      -0.46954002      -0.50643281       0.32286630      -0.10739513      -0.00412452      -0.23010280      -0.46954002      -0.50643281       0.32286630      -0.00580288       0.07070007      -0.98125472       0.67960000       0.13147000       0.01456000       0.07051000       1.08347000       0.01385000      -0.12675000      -0.40060000       0.05834000
Se       1.71208993       7.31761676       8.02630038     -21.24461690       8.86823817      39.96853341       3.84371309     -13.48077200       1.01383069       0.61685465      -0.26175441       0.02025124       3.84371309     -13.48077200       1.01383069     -25.42704868      11.17556777      41.16814742       0.10184082       0.56445568       0.01710731       0.61685465      -0.26175441       0.02025124       0.10184082       0.56445568       0.01710731       0.05314193      -0.07146372       0.99302351       0.84048000      -0.17592000      -0.00690000      -0.02866000       0.84960000       0.02300000       0.28852000       0.02336000       0.04693000
Mo       6.29463828       1.03970034       9.61953212      -6.43278398     -21.59515828      41.64031033     -25.94357890       3.97375856      -1.58573094       1.25524921       0.16092589       0.17812749     -25.94357890       3.97375856      -1.58573094      -5.31086038     -60.92178700      41.59304292      -0.09105702       1.18440541      -0.78796171       1.25524921       0.16092589       0.17812749      -0.09105702       1.18440541      -0.78796171      -0.02439376      -0.06915022       0.01220022      -1.75743000      -0.19581000      -0.01088000      -0.15792000      -2.14331000       0.04444000       0.24698000       0.18257000      -0.07995000
S        7.98848618       1.73356231      11.36573083      -6.26124380      20.87726548     -28.67489965      11.04451604       9.97000740      -0.67793253      -0.36281691      -0.20921720      -0.01707438      11.04451604       9.97000740      -0.67793253       6.93148969      22.44423121     -42.91890052       0.08406398      -0.28634536      -0.08985648      -0.36281691      -0.20921720      -0.01707438       0.08406398      -0.28634536      -0.08985648      -0.02569935      -0.04391591      -0.57763968       0.67491000       0.09970000      -0.01419000       0.00395000       0.40494000      -0.01054000       0.10552000       0.27677000       0.00254000
S        7.96501858       1.75284945       8.06477965       5.32840957      23.42239949      10.55426883       9.78595280      10.68306044       0.11084635      -0.11785832       0.23792161       0.17344543       9.78595280      10.68306044       0.11084635      12.01489095      14.56099475      26.47927543      -0.28192719       0.00782796       0.13167592      -0.11785832       0.23792161       0.17344543      -0.28192719       0.00782796       0.13167592       0.02779660       0.00474347       0.68992072       0.45810000       0.15578000      -0.00820000       0.00243000       0.78150000       0.00257000      -0.13879000      -0.27102000       0.02467000
Mo       4.71641821       3.61325083       9.78532551      10.86021071      19.19016831      -2.38852992       3.54286067       1.80127058      -1.92298427      -0.13273633      -0.21581514       0.16828036       3.54286067       1.80127058      -1.92298427       9.54181382      68.55602065     -12.63991796       0.02385099      -0.35334361       0.99179464      -0.13273633      -0.21581514       0.16828036       0.02385099      -0.35334361       0.99179464       0.00488309       0.05592947      -0.12131008      -1.33987000       0.63237000       0.02823000       0.10889000      -1.89791000      -0.01083000       0.01881000      -0.10304000      -0.07064000
S        6.46689239       4.37352517      11.23509134     -11.96787546      14.13527701      10.02570193      15.66548748       0.97697547      -3.12732424       0.26624562      -0.04693088      -0.25571884      15.66548748       0.97697547      -3.12732424      -2.13712544      -5.61017523      13.25636095      -0.16442871       0.31610141      -0.11466524       0.26624562      -0.04693088      -0.25571884      -0.16442871       0.31610141      -0.11466524      -0.02583089      -0.03887946      -0.38289782       0.99290000       0.07884000      -0.01182000      -0.16720000       0.78264000      -0.00130000      -0.22038000       0.46211000       0.03249000
S        6.43648902       4.51271561       8.22192708      -9.75602460       8.67839671      10.67802582       4.56933316       0.48759329       1.43908446       0.17053518      -0.15017256       0.05399887       4.56933316       0.48759329       1.43908446      -4.91691215     -13.68212700      15.07369900       0.00034620       0.31032141      -0.20393496       0.17053518      -0.15017256       0.05399887       0.00034620       0.31032141      -0.20393496       0.00997516       0.00125670       0.59811142       0.40745000      -0.04147000      -0.00437000      -0.11779000       0.49978000      -0.01149000       0.15765000       0.07502000       0.01845000
Mo       3.12689187       6.51249745       9.99976430      79.76883128     -28.34031710     -56.51402001     -34.75386320      19.83286071       7.86820300      -1.85269121       0.01652155       0.36241098     -34.75386320      19.83286071       7.86820300      53.58449706     -40.24543493     -57.75423339       0.32282050      -1.74840861      -1.04378663      -1.85269121       0.01652155       0.36241098       0.32282050      -1.74840861      -1.04378663       0.02573356      -0.05406640      -0.16147949      -1.02788000       0.44711000       0.00464000      -0.18262000      -1.53393000      -0.01524000      -0.11341000       0.05777000      -0.05122000
S        4.81133373       7.33205837      11.46938733     -10.39224495       9.34836552     -18.47253597       5.03877827       3.87766656      -5.33660364       0.04754740      -0.01755003      -0.05625238       5.03877827       3.87766656      -5.33660364      -1.23216717     -13.23431781     -14.67653222       0.20845888       0.12908205       0.05560460       0.04754740      -0.01755003      -0.05625238       0.20845888       0.12908205       0.05560460      -0.00028604       0.04932585      -0.64041226       0.24263000      -0.08811000      -0.00003000       0.01702000       0.42006000       0.00303000      -0.10338000      -0.05208000       0.02095000
S        4.73789059       7.12427031       8.32643867       5.42399057      16.03662649      16.65294989      12.28547513       2.36863797       2.69837057       0.20975728       0.09520693      -0.30005217      12.28547513       2.36863797       2.69837057       0.85248746       6.19530277      12.19860990       0.09940543      -0.15473526       0.14000006       0.20975728       0.09520693      -0.30005217       0.09940543      -0.15473526       0.14000006      -0.05201460      -0.01210113       0.45980569       0.99130000       0.06612000       0.01573000       0.09770000       0.53723000      -0.00352000       0.00130000      -0.43606000       0.02640000
27
Lattice="9.367738363790231 0.0 0.0 -4.6838691818951155 8.112461423042339 0.0 -0.0 0.0 19.14765721558723" Properties=species:S:1:pos:R:3:raman_tensor:R:27:born_effective_charge:R:9 susceptibility_tensor="_JSON [[-560.0924660721674, -5.010348303446316, 0.21294170976542856], [-5.011789962383845, -575.5685395169318, 0.15762647218937595], [0.22000074353978244, 0.1051023789530984, -31.95698027408883]]" pbc="T T T"
Mo       0.00262297       0.83728845       9.56268100      -3.84977766       2.60967477       7.93953298     -10.87271691       1.46062908       4.64425092       0.27480338      -0.25162488      -0.40671553     -10.87271691       1.46062908       4.64425092      15.88563051      30.57470887       1.03074626       0.21995099       0.42637177       0.58550981       0.27480338      -0.25162488      -0.40671553       0.21995099       0.42637177       0.58550981      -0.02280174       0.03286721       0.19059433      -1.21672000      -0.56265000      -0.03431000       0.41040000      -1.95317000      -0.06030000      -0.18590000      -0.21973000      -0.09990000
S        1.51523168       1.75607623      11.18892038      -8.98117692      15.09130406      -7.02144961      10.08998673       4.65195599      -0.64619412       0.03246879      -0.05563456      -0.09997507      10.08998673       4.65195599      -0.64619412       3.70274368      19.00837760     -17.45552674      -0.19319281      -0.18381704       0.29713052       0.03246879      -0.05563456      -0.09997507      -0.19319281      -0.18381704       0.29713052      -0.00227240       0.02024006      -0.62763235       0.59783000       0.16015000       0.03484000       0.01833000       0.77342000      -0.01287000       0.27745000       0.16570000       0.06598000
S        1.56900250       1.84844213       8.09456904      -6.93622655       8.92336049       9.27422776       9.58787479       3.21125478       2.97621666       0.04532315       0.00531852       0.10064246       9.58787479       3.21125478       2.97621666      -3.34298498       4.06242837      21.90719574      -0.04580737       0.06876757       0.32614600       0.04532315       0.00531852       0.10064246      -0.04580737       0.06876757       0.32614600       0.02220590       0.01581872       0.45740044       0.73859000      -0.01022000       0.00517000      -0.05485000       0.85514000      -0.00034000       0.09814000       0.03784000       0.02327000
Mo      -1.59185978       3.40807689       9.68483631      17.32108401      35.34076691     -18.78612514      31.98196387      22.06162934       2.47607972      -0.36855963      -0.05776105       0.56771670      31.98196387      22.06162934       2.47607972      20.56589686     159.28279685      -5.68735041      -0.08710880      -0.51270391       1.88444041      -0.36855963      -0.05776105       0.56771670      -0.08710880      -0.51270391       1.88444041       0.03362326       0.12021192       0.00110224      -1.25808000      -0.28057000      -0.00968000      -0.34210000      -0.77452000       0.05714000      -0.09972000       0.02660000      -0.05259000
S       -0.01348954       4.43243908      11.34704780       4.03244807      13.92653851     -26.83272790       7.60984805      -2.43698380       1.24376573      -0.32125477       0.00495078      -0.23094345       7.60984805      -2.43698380       1.24376573      -1.09731895      -0.53523332     -30.01749924      -0.18596233      -0.47662748       0.15551477      -0.32125477       0.00495078      -0.23094345      -0.18596233      -0.47662748       0.15551477      -0.02186372       0.03195427      -0.89548814      -0.00857000      -0.03543000       0.00362000      -0.17409000       0.18748000       0.01429000       0.37536000      -0.13763000       0.00014000
S       -0.06875920       4.40021406       7.94140652      14.37067970      10.88463679      32.78739559       8.41093716       4.88617345       4.74236700       0.33260286      -0.09230657       0.10596543       8.41093716       4.88617345       4.74236700       0.65339837     -10.50563388      31.01234147       0.19140945      -0.01820714      -0.23983768       0.33260286      -0.09230657       0.10596543       0.19140945      -0.01820714      -0.23983768       0.00087300      -0.04895501       0.65905394       0.53682000       0.12229000      -0.02095000      -0.12128000       0.13019000       0.01819000      -0.52717000      -0.28542000       0.01429000
Mo      -3.03851962       6.31629127       9.54104152      -2.23024443     -13.38040460      10.58637054      11.61021380      -1.27019310      -8.32661267       0.10601297       0.04519166      -0.23887262      11.61021380      -1.27019310      -8.32661267       7.86478671      13.71814890      14.74304577      -0.49494971       0.27616328       0.19386645       0.10601297       0.04519166      -0.23887262      -0.49494971       0.27616328       0.19386645      -0.01344375       0.00571040       0.08429806      -1.72722000      -0.09415000       0.04549000       0.15282000      -1.17739000       0.01488000       0.34883000       0.43457000      -0.06799000
S       -1.59766778       7.13671780      11.15688271      28.88097966      14.34295472     -15.44474543      14.77040473       4.98605528       3.92182062      -0.14433284       0.08309404       0.46639226      14.77040473       4.98605528       3.92182062       9.10927438      21.32701050     -14.85181290       0.19439437      -0.03166590       0.37912466      -0.14433284       0.08309404       0.46639226       0.19439437      -0.03166590       0.37912466       0.02614479      -0.00661880      -0.60200804       0.70714000      -0.08083000       0.00315000      -0.15742000       0.57363000      -0.01134000       0.05916000       0.09196000       0.03805000
S       -1.37434090       7.43798426       7.91695672     -16.58982094     -11.05448603      25.33805456       3.65013633      -8.25042336       2.50411778       0.24117224       0.16494053      -0.18857096       3.65013633      -8.25042336       2.50411778     -18.27240966     -27.52966833      23.27314427       0.18256231       0.49385518      -0.03357487       0.24117224       0.16494053      -0.18857096       0.18256231       0.49385518      -0.03357487      -0.02421749       0.04819893       0.68924894       0.46282000       0.28995000      -0.00453000       0.16082000       0.69607000      -0.01141000       0.14252000       0.42827000       0.02764000
Mo       3.12788784       1.03260580       9.68033979     -18.67318257     -34.33785990     -27.82308679     -43.86891939     -12.40582673      -0.13751962      -1.10757962      -0.07192032       0.13889418     -43.86891939     -12.40582673      -0.13751962     -29.93170449     -69.81072341     -20.99709115      -0.10567829      -1.02113022      -1.22186961      -1.10757962      -0.07192032       0.13889418      -0.10567829      -1.02113022      -1.22186961      -0.00090575      -0.06014662      -0.15743438      -0.96717000      -0.34469000       0.02404000      -0.22952000      -1.02898000      -0.03679000      -0.11054000       0.14081000      -0.03017000
S        4.55515646       1.82361763      11.33693065       9.96473308       1.88154700     -40.25769696      11.15607159       3.99048721      -4.83798297      -0.12800074       0.07616823       0.20786082      11.15607159       3.99048721      -4.83798297      20.20673053      -7.45086134     -49.64417375       0.07074831      -0.27242486       0.21026786      -0.12800074       0.07616823       0.20786082       0.07074831      -0.27242486       0.21026786       0.02668305       0.01996239      -0.85821673       0.07675000      -0.23495000      -0.01242000      -0.10339000       0.31987000      -0.01450000      -0.04429000       0.00544000       0.03343000
S        4.55787310       1.91617088       7.87498926       8.59578867      -2.82359987      39.61438387       9.09523454       7.26186678       5.37131585       0.26754237       0.18384220      -0.25724587       9.09523454       7.26186678       5.37131585      21.09694484     -10.17669929      44.65748963       0.03924806       0.00746332      -0.13185959       0.26754237       0.18384220      -0.25724587       0.03924806       0.00746332      -0.13185959      -0.03922611      -0.03341469       0.73105590       0.32819000      -0.01502000       0.00856000       0.11290000       0.34017000      -0.01943000      -0.22712000      -0.20062000       0.00728000
Mo       1.52984535       3.69229408       9.63153388     -16.00936146     -52.45998720       7.50150355     -43.75214044      -1.69715708       0.70535335       0.07852557       0.15202090      -0.06427715     -43.75214044      -1.69715708       0.70535335       3.15576580     -39.45996152       2.36314526      -0.27183962       0.19769830      -1.14348151       0.07852557       0.15202090      -0.06427715      -0.27183962       0.19769830      -1.14348151      -0.01661538      -0.07407201       0.14996978      -0.72973000       0.09257000      -0.02017000       0.30969000      -0.41889000       0.05998000      -0.17859000       0.00338000      -0.03516000
S        3.24245528       4.55712368      11.17796013     -26.39203283       8.20613560     -14.53122543       3.42727247     -12.04898163       2.85510331      -0.21593271       0.09827103      -0.14656750       3.42727247     -12.04898163       2.85510331     -12.82503265      -7.84621761     -19.44161217       0.36177827      -0.23717932      -0.10808289      -0.21593271       0.09827103      -0.14656750       0.36177827      -0.23717932      -0.10808289       0.02133210      -0.00663197      -0.64252783       0.53139000      -0.10650000      -0.00260000      -0.17950000       0.66028000       0.02369000      -0.52348000      -0.09559000       0.04556000
S        2.97678622       4.38222801       7.97447464      24.34048924      22.29766571      15.56526726      14.40823524       3.54750712      -4.30993716       0.14601302      -0.09342671       0.27363022      14.40823524       3.54750712      -4.30993716      12.60792025      27.20398642      23.23626624      -0.19665950       0.10621951       0.33490856       0.14601302      -0.09342671       0.27363022      -0.19665950       0.10621951       0.33490856      -0.01758110      -0.01266947       0.60297686       0.61443000       0.06501000       0.00654000       0.02970000       0.55400000       0.04482000      -0.09027000      -0.34750000       0.01457000
Mo       0.06060927       6.30167760       9.48239948     -60.47436745     -17.22757860      14.64134423     -27.38537719     -16.22611257      -6.76885444       0.31565448      -0.34541943      -0.47155640     -27.38537719     -16.22611257      -6.76885444     -29.17226402      -1.14424546      23.27203760       0.02077423       0.44074732      -0.22591935       0.31565448      -0.34541943      -0.47155640       0.02077423       0.44074732      -0.22591935      -0.02193587      -0.02312201       0.01399170      -0.88734000       0.53936000       0.02446000      -0.33606000      -1.20785000       0.01428000       0.01044000      -0.01425000      -0.05958000
S        1.48244460       7.29137916      11.05205772      15.86337785       1.02045487     -10.56383625       4.18480095      -0.15376917      -2.30670467       0.00976632       0.12803630       0.25851807       4.18480095      -0.15376917      -2.30670467       2.03775762     -27.53601175     -20.11627559      -0.08856143      -0.16496003       0.05425055       0.00976632       0.12803630       0.25851807      -0.08856143      -0.16496003       0.05425055      -0.00110671       0.01642764      -0.49788799       0.97825000      -0.08722000      -0.00186000       0.08982000       1.19847000      -0.00775000       0.04218000      -0.47702000       0.05404000
S        1.66202414       7.17456346       7.85756526      -7.36233656      13.20899502      16.06091222      10.90225430      -3.47988567       4.52843920       0.24168550      -0.17730199      -0.33755868      10.90225430      -3.47988567       4.52843920      -8.53139090       3.88098015      19.22464249       0.19995818       0.17577731       0.22199408       0.24168550      -0.17730199      -0.33755868       0.19995818       0.17577731       0.22199408      -0.02018281       0.00097948       0.74829670       0.71128000      -0.08041000       0.00854000      -0.07583000       0.53062000      -0.01192000       0.15505000       0.01928000       0.02684000
Mo       6.16125520       0.90923269       9.47668516       8.90146681     -19.67330653       8.06292263     -20.83083557       0.36922007       1.95945644       0.54214487       0.32125046       0.16955402     -20.83083557       0.36922007       1.95945644     -17.67138584     -24.80144714      16.92294104      -0.15587946       0.69667256      -0.29103574       0.54214487       0.32125046       0.16955402      -0.15587946       0.69667256      -0.29103574       0.00462378      -0.00981800       0.14954978      -1.68206000       0.55997000      -0.00681000       0.23187000      -1.18484000      -0.07653000      -0.05908000      -0.48879000      -0.09246000
S        7.64810263       1.59673100      11.20063005      13.59976573      12.80244566     -24.34332352      12.28322139      -0.16320120       1.94609948      -0.30788300      -0.05733080       0.03544338      12.28322139      -0.16320120       1.94609948       8.35731077       3.29303607     -28.09851374       0.08409965       0.16759340      -0.06009892      -0.30788300      -0.05733080       0.03544338       0.08409965       0.16759340      -0.06009892      -0.01161884      -0.01530868      -0.68527170       0.86417000       0.11266000      -0.01718000       0.00502000       0.48241000       0.01602000       0.16432000       0.62684000       0.06612000
S        7.73484789       1.94624132       8.02449836       8.41624299     -19.37664416      16.82050471      -1.52281069      -3.42667414      -1.16397312       0.03577208       0.02303761      -0.03266236      -1.52281069      -3.42667414      -1.16397312       2.39117745     -54.84611720       5.21583896      -0.11393450      -0.09937018      -0.74440396       0.03577208       0.02303761      -0.03266236      -0.11393450      -0.09937018      -0.74440396       0.01270794      -0.00221771       0.51277359       0.70314000       0.12562000      -0.00337000       0.09452000       0.90004000      -0.00744000      -0.05177000       0.38774000       0.01534000
Mo       4.67525086       3.54231658       9.54797365       1.51559653      25.00952252       7.37070506       2.81665196      -3.57702773      -0.40068915       0.27926611       0.01344897      -0.14432859       2.81665196      -3.57702773      -0.40068915     -20.25474266     108.66173692       9.36720575       0.19208497       0.52430773       0.74136534       0.27926611       0.01344897      -0.14432859       0.19208497       0.52430773       0.74136534      -0.00317141       0.04983475       0.23466462      -0.52400000       0.19952000       0.00080000       0.34182000      -1.24788000       0.04457000      -0.10602000       0.38796000      -0.04302000
S        6.24781310       4.42250928      11.19491573      -4.60559225       7.58145916     -19.33505590       3.76372340      -3.04771695       0.04431275      -0.03216946      -0.11940427      -0.06033696       3.76372340      -3.04771695       0.04431275       4.62870685     -16.88114024     -15.39285026      -0.06159792      -0.11528611      -0.00808538      -0.03216946      -0.11940427      -0.06033696      -0.06159792      -0.11528611      -0.00808538      -0.00266881       0.00664846      -0.64458705       0.66195000      -0.00851000       0.00851000       0.09325000       0.61152000      -0.00491000      -0.00556000      -0.31564000       0.05033000
S        6.31001488       4.55880987       8.05381938      -5.22024009      -7.64357412      12.93797904      -4.46282823      -1.33498621      -6.04512384       0.12070504      -0.01355898       0.07779232      -4.46282823      -1.33498621      -6.04512384      -0.70250113     -45.04612007       5.05141127      -0.09795504       0.01573846      -0.63637042       0.12070504      -0.01355898       0.07779232      -0.09795504       0.01573846      -0.63637042       0.02064408      -0.05775252       0.51469007       0.90388000      -0.30361000       0.01316000      -0.02404000       0.56648000       0.00432000       0.16570000       0.11402000       0.01977000
Mo       3.15674047       6.34636171       9.53467146      41.52408470     -18.22607818      -5.59820242     -32.17521164      12.01741060      -6.27731209      -0.42596692      -0.09184004       0.21686441     -32.17521164      12.01741060      -6.27731209      19.00647882     -13.64660598     -10.20620660       0.11860948      -0.28044684      -0.46905118      -0.42596692      -0.09184004       0.21686441       0.11860948      -0.28044684      -0.46905118       0.02266817      -0.01463345      -0.15556623      -1.45680000       0.13191000      -0.01147000      -0.40584000      -1.50399000       0.00103000       0.25634000       0.22305000      -0.09318000
S        4.71422065       7.27217529      11.20971676       6.55958338      -4.72919778     -29.73216068       2.73518933       4.32278432       0.58320899      -0.14230916      -0.02384530       0.23521807       2.73518933       4.32278432       0.58320899       3.12017218     -28.93397382     -22.59964008       0.11677187      -0.12945819      -0.28775182      -0.14230916      -0.02384530       0.23521807       0.11677187      -0.12945819      -0.28775182       0.01873121      -0.01413614      -0.70277702       0.36761000      -0.20188000      -0.01700000       0.03499000       0.69149000      -0.01097000      -0.11750000      -0.20602000       0.05771000
S        4.91159890       7.19217481       7.91227285     -26.49738358       8.13058475      16.15699563      12.38788036      -3.17517673       1.12510892       0.21771153       0.15425436      -0.24028207      12.38788036      -3.17517673       1.12510892     -12.76361782      -6.04153019      13.14244474       0.09223665       0.00708000       0.16513616       0.21771153       0.15425436      -0.24028207       0.09223665       0.00708000       0.16513616       0.00456750       0.01353496       0.69063673       0.67344000       0.04763000      -0.02450000       0.11799000       0.42622000      -0.02671000       0.23153000      -0.30525000       0.01372000
27
Lattice="9.563512763792708 0.0 0.0 -4.781756381896354 8.282002053444485 0.0 -0.0 0.0 19.182493901615413" Properties=species:S:1:pos:R:3:raman_tensor:R:27:born_effective_charge:R:9 susceptibility_tensor="_JSON [[-554.569641483623, -0.38898457958066085, -0.032194254568530326], [-0.3889134868318625, -558.4909735082549, -0.13230638635264902], [-0.03915856311196067, -0.10237307464556462, -32.66362594384838]]" pbc="T T T"
W        0.07440413       0.84847485       9.62902283     -25.66311552      14.96103219      -2.38221387      11.57439080     -17.93489194      -1.54096379      -0.10928391      -0.04568800      -0.68495288      11.57439080     -17.93489194      -1.54096379     -18.41697369      76.57473973      -7.92053011      -0.17018371      -0.11434301       0.35585128      -0.10928391      -0.04568800      -0.68495288      -0.17018371      -0.11434301       0.35585128      -0.03230519       0.02812974       0.04144709      -0.29906000      -0.22515000       0.11252000       0.29361000      -0.33236000       0.07550000      -0.07594000      -0.09560000      -0.16342000
S        1.63861228       1.83409048      11.15325549      15.16685713       5.33846467      -4.63382433       7.54868476       5.32135735       2.52395521       0.04424348       0.14257509       0.39098392       7.54868476       5.32135735       2.52395521       4.00929035     -17.54803962      -2.57336443       0.09046619      -0.05018856      -0.03503606       0.04424348       0.14257509       0.39098392       0.09046619      -0.05018856      -0.03503606       0.04067733      -0.00182419      -0.61942066       0.52072000      -0.10284000       0.00493000      -0.00412000       0.46285000       0.00766000      -0.06411000      -0.05307000       0.04610000
S        1.59615028       1.80664320       8.02053561      16.88398992      11.49055355       4.59459700       8.38551771       4.93020479      -3.94150202       0.02179104       0.02315909       0.21139500       8.38551771       4.93020479      -3.94150202       4.18781430     -13.78207847       4.64056135       0.04747992      -0.10273020      -0.18917678       0.02179104       0.02315909       0.21139500       0.04747992      -0.10273020      -0.18917678      -0.02087960      -0.02230462       0.64139382       0.39681000      -0.02715000       0.02049000       0.06138000       0.60627000       0.02700000      -0.10372000       0.19361000       0.07129000
W       -1.61996343       3.68558655       9.59947157      72.46045347     -14.63029336      -4.55688534     -23.97616643      29.84253582      -0.69888064       0.03648269      -0.14010433       0.64435729     -23.97616643      29.84253582      -0.69888064      30.42719545      -9.53635722       4.26311523      -0.08684420       0.19484128      -0.06830178       0.03648269      -0.14010433       0.64435729      -0.08684420       0.19484128      -0.06830178       0.01978232      -0.00543641       0.02086815      -0.28712000       0.39890000       0.08573000       0.06014000      -0.32825000       0.06067000      -0.04233000       0.05232000      -0.15539000
S        0.00449485       4.67273234      11.09558751       7.57012233      11.64345076      -3.08022524      12.63395248       3.92572592      -2.17087030      -0.00564917      -0.08298281       0.12666557      12.63395248       3.92572592      -2.17087030       0.43985148      -4.11792939      -3.43921002       0.02766708      -0.00125338       0.22000140      -0.00564917      -0.08298281       0.12666557       0.02766708      -0.00125338       0.22000140       0.00530830       0.02462440      -0.55837835       0.49558000       0.01927000       0.00682000       0.04131000       0.55849000      -0.00496000       0.06520000      -0.17178000       0.05178000
S        0.11801375       4.55261462       8.00925067     -13.60571312      13.96064283      -1.84247034      15.20018630      -1.22858464       6.46172397       0.03730719       0.21413537      -0.23834161      15.20018630      -1.22858464       6.46172397      -9.48352508       7.20915094       0.89344011       0.08541001      -0.05126554       0.27594984       0.03730719       0.21413537      -0.23834161       0.08541001      -0.05126554       0.27594984      -0.00588141      -0.00392091       0.64685497       0.49808000      -0.05909000       0.01368000      -0.03151000       0.21184000      -0.00005000       0.28884000      -0.12455000       0.06812000
Mo      -3.26039277       6.36298758       9.58321360      44.15642112      -5.82444926       5.64616445       0.71133937       7.33580493      -1.13458834      -0.01037852      -0.02043461       0.70264504       0.71133937       7.33580493      -1.13458834      22.95954349      54.18022030       3.98013157      -0.08708608       0.06778577       0.88000645      -0.01037852      -0.02043461       0.70264504      -0.08708608       0.06778577       0.88000645       0.02029137       0.02627216       0.11324280      -1.41110000      -0.16716000       0.03874000       0.39169000      -1.48663000       0.00672000       0.24375000       0.10417000      -0.09886000
S       -1.62895313       7.32861547      11.10706372       0.44373631       5.85066826     -14.44866664       8.94763974       1.91652426       6.23349945      -0.26957611       0.02897838       0.02998937       8.94763974       1.91652426       6.23349945       5.88258569      -5.99862717     -10.33023374       0.00686212      -0.04888338      -0.16462545      -0.26957611       0.02897838       0.02998937       0.00686212      -0.04888338      -0.16462545       0.02217429       0.00287092      -0.60069262       0.83231000       0.09938000       0.01520000      -0.06213000       0.63022000       0.01371000       0.22883000       0.33263000       0.04834000
S       -1.77489233       7.32479006       7.89391471      22.95395652       4.56987005      17.13706555       7.74321236       7.22876591      -4.85303325       0.22587284       0.10705073       0.05751683       7.74321236       7.22876591      -4.85303325      14.81433399      -9.83540545      10.67833801       0.14518262       0.03435157      -0.12277926       0.22587284       0.10705073       0.05751683       0.14518262       0.03435157      -0.12277926      -0.03836711      -0.01544344       0.76895805       0.46668000       0.20526000       0.00253000       0.09185000       0.40363000      -0.00550000      -0.63291000      -0.19776000       0.05263000
Mo       3.21247957       0.83365141       9.52382419     -50.14485876       1.91275152      14.79094465       2.19701493      -9.74474938       1.28987501       0.44626728      -0.04064294      -0.14605984       2.19701493      -9.74474938       1.28987501     -22.65778025     105.20199471      15.80691879       0.02965726       0.33534729       1.03335683       0.44626728      -0.04064294      -0.14605984       0.02965726       0.33534729       1.03335683      -0.02527119       0.06457366      -0.04788704      -0.95003000       0.40210000      -0.01878000      -0.41258000      -0.67767000       0.01253000       0.00642000      -0.15662000      -0.06645000
S        4.81255089       1.93182958      11.26447914      -6.20424160      -0.79585454     -18.65588914      -1.48490187      -7.41232494      -2.11085878       0.01791774      -0.08889645      -0.09396924      -1.48490187      -7.41232494      -2.11085878      -8.40960614     -30.79186035     -19.83843729      -0.20856783      -0.40762556      -0.22718684       0.01791774      -0.08889645      -0.09396924      -0.20856783      -0.40762556      -0.22718684      -0.01258752       0.00518828      -0.75109844       0.18816000       0.06883000      -0.01743000      -0.03725000       0.24747000       0.00039000       0.05010000      -0.45203000       0.04492000
S        4.84143270       1.87875208       7.98400300       0.04965681       7.60856222       9.86268069       3.29273112      -3.49078397       0.43759474      -0.02729941      -0.08175487       0.01004791       3.29273112      -3.49078397       0.43759474      -4.26563832     -14.72437373      11.53807628       0.05068039       0.29527267      -0.03198710      -0.02729941      -0.08175487       0.01004791       0.05068039       0.29527267      -0.03198710       0.02707332       0.00603013       0.69105407       0.23672000      -0.00663000      -0.03032000      -0.15782000       0.49094000       0.00581000      -0.01486000       0.41598000       0.03984000
Mo       1.66022582       3.68998576       9.58589138     -43.78465856     -25.08753167      -3.59483345     -21.21428573     -12.78119441      -6.12246119      -0.22913974      -0.04861070      -0.53809940     -21.21428573     -12.78119441      -6.12246119      -3.82513295     -15.04325866      -3.97050847      -0.09820051      -0.15826265      -0.58910415      -0.22913974      -0.04861070      -0.53809940      -0.09820051      -0.15826265      -0.58910415      -0.01569584      -0.01464092      -0.15253508      -1.38918000       0.00177000       0.00807000       0.29014000      -1.47615000      -0.02172000       0.12609000      -0.17548000      -0.09156000
S        3.17814656       4.54792849      11.10103871       5.84972172      20.59038212       5.05678204      21.32764778      -1.31816992       1.57973030       0.20127444       0.14103788       0.12321233      21.32764778      -1.31816992       1.57973030       0.44583471      12.66056350       1.88726761      -0.03417450       0.30479911       0.39074286       0.20127444       0.14103788       0.12321233      -0.03417450       0.30479911       0.39074286       0.00244103      -0.01021031      -0.52741533       0.62921000      -0.03699000      -0.01568000      -0.02233000       0.73044000      -0.02976000      -0.05925000       0.13664000       0.06681000
S        3.21362719       4.67560139       8.04846107       4.66171080       6.77227770       5.51082300      10.56451156      -1.83797748       0.15898470      -0.00987025      -0.10703153       0.04885469      10.56451156      -1.83797748       0.15898470      -0.88918399     -12.93194490       0.80434169       0.01857790      -0.01409708       0.17409317      -0.00987025      -0.10703153       0.04885469       0.01857790      -0.01409708       0.17409317       0.01630765       0.02393685       0.61257031       0.44458000      -0.01998000      -0.02308000       0.05170000       0.54276000      -0.01865000      -0.06348000       0.18154000       0.06641000
Mo      -0.02926435       6.52939270       9.47505027      -5.70469498     -51.60808227      29.25066633     -50.35068452      -6.09862112       5.05574456       0.53082877       0.12612336      -0.47704730     -50.35068452      -6.09862112       5.05574456       4.40461126     -55.66231859      19.90402534       0.03225342       0.41372141      -0.82818014       0.53082877       0.12612336      -0.47704730       0.03225342       0.41372141      -0.82818014      -0.00117707      -0.05579443      -0.01973260      -0.75920000      -0.54887000      -0.03428000       0.20972000      -0.97976000      -0.02740000      -0.36888000       0.02412000      -0.06836000
S        1.48636115       7.44347325      11.19466550      -5.26999754       6.86060854     -17.28814027      10.05998838      -0.34940808       0.66884776      -0.26789912       0.06822326      -0.05142497      10.05998838      -0.34940808       0.66884776       1.98949457      -4.69504720     -12.20445608       0.07986547      -0.02533033       0.14384832      -0.26789912       0.06822326      -0.05142497       0.07986547      -0.02533033       0.14384832      -0.01879358      -0.00280863      -0.69484823       0.48319000       0.05768000      -0.01833000       0.01830000       0.42582000      -0.01270000      -0.00591000       0.10186000       0.06228000
S        1.51801638       7.40139380       8.01977053       6.39388475      19.61989303      -3.56058960      18.04719820       1.80299639      -4.46994639      -0.11201751      -0.11499533       0.24106304      18.04719820       1.80299639      -4.46994639       7.67317706      14.87903877       7.33407166      -0.20115399      -0.08240047       0.44715880      -0.11201751      -0.11499533       0.24106304      -0.20115399      -0.08240047       0.44715880       0.02015875       0.03210523       0.61769573       0.48595000      -0.04573000      -0.00294000      -0.06358000       0.57170000      -0.01425000       0.19019000      -0.18569000       0.04511000
Mo       6.32980219       0.96620169       9.63428276      34.60968785     -32.51198574      -5.10394783     -32.01825755      14.99361183      -0.65604238      -0.07149877       0.00694283       0.35541711     -32.01825755      14.99361183      -0.65604238      20.51840699      12.83770309     -10.08028915       0.05037217      -0.04589120      -0.35569982      -0.07149877       0.00694283       0.35541711       0.05037217      -0.04589120      -0.35569982       0.03463484      -0.00923960       0.13475270      -0.75648000       0.10300000      -0.03499000       0.15526000      -0.61009000      -0.00958000       0.13941000       0.00131000      -0.06088000
S        7.95741643       1.82730038      11.20011670       2.16950441       8.25716345      -8.02325370       7.24554833      -4.18129392       3.00794949      -0.13088739       0.20701119      -0.04364395       7.24554833      -4.18129392       3.00794949       6.14770997      -7.49415308      -7.55595034       0.13494146      -0.12637735      -0.02864272      -0.13088739       0.20701119      -0.04364395       0.13494146      -0.12637735      -0.02864272      -0.01625402      -0.00071241      -0.67229968       0.34991000      -0.03082000       0.00103000      -0.06827000       0.36174000       0.01487000      -0.12175000       0.09743000       0.07002000
S        7.99624429       1.82567459       8.10287746      -9.71597881       6.40297448       1.03775349       7.09809245      -6.78093809      -0.06019940       0.02705958      -0.15432842      -0.03215466       7.09809245      -6.78093809      -0.06019940      -0.32878708     -16.99075600      -1.30333715      -0.06918172      -0.06345447      -0.16762023       0.02705958      -0.15432842      -0.03215466      -0.06918172      -0.06345447      -0.16762023      -0.01102233      -0.00487796       0.52326482       0.43379000      -0.01233000       0.00820000      -0.02770000       0.45190000       0.00003000       0.16820000      -0.04167000       0.04204000
W        4.80700406       3.72852672       9.61687717     -15.34846748     -34.16900383      -7.72092331     -30.30794441      -5.99168845       2.85022667      -0.30878411      -0.00047780      -0.09817605     -30.30794441      -5.99168845       2.85022667     -19.66621919     -35.54192451      -7.85814442       0.07178294      -0.22076405      -0.83514136      -0.30878411      -0.00047780      -0.09817605       0.07178294      -0.22076405      -0.83514136      -0.00348590      -0.02867715      -0.01990661      -0.40499000      -0.07141000      -0.09444000      -0.49925000      -0.81235000      -0.04150000       0.07248000      -0.29361000      -0.18328000
S        6.41816905       4.53157489      11.26352279     -13.48948789      16.33613484     -18.20968726      12.27958824       0.59705854      -5.88446808      -0.09851187      -0.00952771      -0.21613560      12.27958824       0.59705854      -5.88446808      -6.15838620       7.26447415     -19.47696920      -0.02136591      -0.00304652       0.05783297      -0.09851187      -0.00952771      -0.21613560      -0.02136591      -0.00304652       0.05783297      -0.00302045      -0.02396493      -0.78354327       0.21809000      -0.02710000       0.00008000       0.00407000       0.24886000      -0.00798000      -0.17145000       0.19245000       0.05881000
S        6.37771539       4.56036106       7.98295101      -5.41884868       9.83535344      15.76663984      11.19422197       0.83959291       3.13169523      -0.02240608       0.03041800      -0.08171247      11.19422197       0.83959291       3.13169523      -3.46241075      -6.15252812      15.71594066       0.04933786      -0.00288332       0.17372816      -0.02240608       0.03041800      -0.08171247       0.04933786      -0.00288332       0.17372816      -0.01357518       0.00885627       0.64909005       0.35308000       0.07167000      -0.00022000       0.07773000       0.34531000      -0.00136000      -0.01433000      -0.00958000       0.04985000
Mo       3.17288663       6.49917200       9.59459418     -43.06200157     -21.46894792       2.84312239     -22.65662201      -5.30350192      -2.51246826       0.25934048      -0.11816680      -0.36800867     -22.65662201      -5.30350192      -2.51246826     -36.54524798       4.17268343       3.50853926       0.06783230       0.02335550      -0.09895334       0.25934048      -0.11816680      -0.36800867       0.06783230       0.02335550      -0.09895334      -0.02388364      -0.01257596       0.11634885      -1.68420000       0.05354000      -0.02879000      -0.41317000      -1.29739000      -0.02466000       0.02474000       0.37491000      -0.10350000
S        4.68124386       7.37117310      11.26094064      14.94303420       2.46994567     -14.43566169       1.50904266       4.45319946      -0.65026872      -0.06377156      -0.13829272       0.07091717       1.50904266       4.45319946      -0.65026872       9.81778840     -24.56174240     -14.82964850       0.12619283      -0.25863881      -0.31888693      -0.06377156      -0.13829272       0.07091717       0.12619283      -0.25863881      -0.31888693       0.00466520      -0.00003884      -0.80338459       0.38526000      -0.07587000       0.00359000       0.02173000       0.29709000       0.00299000       0.11157000      -0.15327000       0.05975000
S        4.76817619       7.31092297       7.98075140     -10.85921888      11.68920535      15.90679057       5.01242715       1.68456834       3.41876731      -0.10776298       0.08665752       0.04949770       5.01242715       1.68456834       3.41876731      -0.13666544     -11.07446815      20.33667093      -0.14591473       0.11955722      -0.08806980      -0.10776298       0.08665752       0.04949770      -0.14591473       0.11955722      -0.08806980       0.02285751      -0.00550913       0.64394421       0.52325000      -0.02429000      -0.00234000       0.03105000       0.41334000      -0.00781000       0.02309000      -0.09824000       0.04760000
27
Lattice="9.734542837532572 0.0 0.0 -4.867271418766286 8.430114097303207 0.0 -0.0 0.0 20.033689159642034" Properties=species:S:1:pos:R:3:raman_tensor:R:27:born_effective_charge:R:9 susceptibility_tensor="_JSON [[-642.7481275801493, -1.0907518995437266, 0.1636124774861994], [-1.0907999133509556, -638.4772629261921, 0.2159002985251871], [0.16498316047893954, 0.21530136879904752, -36.3766170409201]]" pbc="T T T"
W        0.02229210       0.98104723      10.11827852     -18.36586359     -13.62256841     -22.82665857     -23.52359399       9.15099269      -0.88221833      -0.44136553      -0.13216954      -0.17774956     -23.52359399       9.15099269      -0.88221833      -9.63470569      -8.00979344     -14.03806398      -0.00375894       0.01463260      -0.58188013      -0.44136553      -0.13216954      -0.17774956      -0.00375894       0.01463260      -0.58188013      -0.01281995      -0.00575722      -0.02517409      -1.15288000       0.00902000      -0.03222000      -0.28597000      -0.64956000      -0.04243000      -0.10169000      -0.12518000       0.03648000
Se       1.66645639       1.92179345      11.73430997      -2.51538846       9.10345442     -14.69164010       2.49784037       2.42675715      -1.63342725      -0.04898649      -0.11032918       0.01118364       2.49784037       2.42675715      -1.63342725      -2.69512842      -9.61988105     -26.23508286      -0.05005306      -0.46862826       0.24297973      -0.04898649      -0.11032918       0.01118364      -0.05005306      -0.46862826       0.24297973      -0.02404201       0.05400712      -0.81654968       0.58735000       0.01645000      -0.00437000       0.05986000       1.11522000      -0.01146000      -0.11330000      -0.42800000       0.05677000
Se       1.56181005       1.83827107       8.31368896      10.33445484       4.59074581      25.43291946       8.10811500      -1.67904974       1.64253564       0.38160153       0.04203936       0.02688727       8.10811500      -1.67904974       1.64253564       0.60708986       2.37622951      29.56380467       0.04366171       0.30355095       0.19101792       0.38160153       0.04203936       0.02688727       0.04366171       0.30355095       0.19101792      -0.00087375      -0.01659783       0.81606373       1.11192000      -0.09697000       0.01412000       0.05629000       0.50659000      -0.00204000       0.08245000       0.09781000       0.03223000
Mo      -1.75659826       3.74273703      10.07700405      58.05880429     -24.34710427     -16.03197213     -12.57046968      12.08817631       1.14485001      -0.64711807       0.08358314       0.99506967     -12.57046968      12.08817631       1.14485001      17.64837791      12.29924171      -9.05001840       0.00023127      -0.33016864       0.20612008      -0.64711807       0.08358314       0.99506967       0.00023127      -0.33016864       0.20612008       0.08047520      -0.01502040      -0.04358195      -1.48802000       0.12454000      -0.03179000      -0.14412000      -1.70343000       0.01858000      -0.25238000      -0.05332000      -0.09288000
Se      -0.08887638       4.56735015      11.75309764       3.27333364      19.23652125     -26.16935381       6.96743199      -0.49996490       1.42326884      -0.44607321      -0.09916982      -0.11350448       6.96743199      -0.49996490       1.42326884       2.19150226      15.45787053     -31.81708934       0.00594004      -0.48431588       0.12082193      -0.44607321      -0.09916982      -0.11350448       0.00594004      -0.48431588       0.12082193      -0.00934252       0.01322236      -0.86391718       0.75752000      -0.14466000       0.00279000      -0.11496000       0.78169000       0.02136000       0.22066000       0.33446000       0.02258000
S       -0.20277053       4.64766013       8.42612293       9.34803236      13.20190800      16.50643159       5.49874801       8.62880558       1.28569835       0.02190203       0.18241023      -0.17853339       5.49874801       8.62880558       1.28569835      12.71437654       2.31879737      19.40168583       0.04020342      -0.00979062      -0.00600180       0.02190203       0.18241023      -0.17853339       0.04020342      -0.00979062      -0.00600180      -0.02446491      -0.02346103       0.50437167       0.50454000       0.13146000      -0.01489000       0.14597000       0.58632000       0.00808000      -0.50485000      -0.23934000       0.00200000
Mo      -3.15992995       6.60615281      10.07710140     -43.74596561     -41.05267885      20.97922485     -23.89160158     -21.88512285       3.00488965       0.64701216      -0.01737465      -0.81358871     -23.89160158     -21.88512285       3.00488965     -29.40466230     -37.56308997      21.61977359      -0.08566800       0.63849339      -0.68635988       0.64701216      -0.01737465      -0.81358871      -0.08566800       0.63849339      -0.68635988      -0.04601820      -0.04811061       0.13019698      -1.83832000      -0.37869000       0.00354000       0.01579000      -1.76874000      -0.00464000       0.02596000       0.16606000      -0.08494000
Se      -1.52462410       7.48479264      11.75241622       4.87173789       4.79347366     -29.85541036       8.86391767      -1.55728041       4.02767562      -0.38774300       0.26160831       0.19799351       8.86391767      -1.55728041       4.02767562       3.52150209       5.51678295     -19.33218484       0.14782529      -0.18673798       0.15795596      -0.38774300       0.26160831       0.19799351       0.14782529      -0.18673798       0.15795596      -0.01830615      -0.04584775      -0.86156673       0.82908000      -0.09259000       0.00491000      -0.10009000       0.85533000      -0.00394000      -0.21726000       0.05900000       0.03689000
Se      -1.68787238       7.42696946       8.30132610       5.87398863      12.43893001      27.03146601       8.96260976       0.01766024      -6.26975432       0.23992351      -0.27761787       0.01880536       8.96260976       0.01766024      -6.26975432      11.21687972      11.36894067      28.91169177      -0.19146255       0.26118572       0.01990665       0.23992351      -0.27761787       0.01880536      -0.19146255       0.26118572       0.01990665       0.02148869       0.03410309       0.84334578       0.83910000      -0.01122000       0.01226000      -0.10895000       1.02709000       0.00250000       0.05053000      -0.22719000       0.04637000
Mo       3.25951432       0.90891426      10.04945530      10.27441263      15.68451359     -36.08326186       1.64802656      12.41088844      -2.80576971      -0.77444921      -0.01228630       0.56402282       1.64802656      12.41088844      -2.80576971       3.46205574      56.59315746     -31.02038356       0.11900313      -0.55611087       0.29160497      -0.77444921      -0.01228630       0.56402282       0.11900313      -0.55611087       0.29160497       0.03109596       0.02678866      -0.09031291      -1.80904000       0.53742000       0.03034000       0.23773000      -2.11940000      -0.03644000       0.08508000      -0.30112000      -0.09487000
S        4.98681160       1.86309415      11.45054805      -4.37464523      10.70046057      -0.92138673       6.47000039      -3.11883188      -4.80621869       0.22374713       0.02482794      -0.20996166       6.47000039      -3.11883188      -4.80621869      -8.73271746     -13.81458956      -0.65611785       0.01795208       0.05300800       0.18005568       0.22374713       0.02482794      -0.20996166       0.01795208       0.05300800       0.18005568      -0.00357335       0.04410347      -0.34734929       0.60269000      -0.10945000       0.02347000       0.09527000       0.90190000      -0.00080000      -0.07132000      -0.13919000       0.00984000
Se       4.86298822       1.98097947       8.20466209       6.23813830      -3.83865319      27.08765424       0.97511900       1.98627679       0.94357928       0.47278102       0.11616677      -0.18593614       0.97511900       1.98627679       0.94357928       4.68012799     -16.91303749      16.80944583      -0.00326225       0.31127293      -0.24797262       0.47278102       0.11616677      -0.18593614      -0.00326225       0.31127293      -0.24797262      -0.01223549      -0.04912495       0.96521462       0.89020000      -0.17172000       0.01128000      -0.12456000       0.57846000      -0.00513000      -0.18616000       0.18412000       0.02228000
Mo       1.53581882       3.82304701       9.96836656      38.93741830     -53.39426600      25.94606265     -29.20243977       9.62757402       5.03784891       0.56754243       0.19268284       0.22098795     -29.20243977       9.62757402       5.03784891      10.42821554     -76.14789265      22.30922224       0.12680097       0.69289984      -0.79076915       0.56754243       0.19268284       0.22098795       0.12680097       0.69289984      -0.79076915       0.04087553      -0.07591093       0.13713467      -1.62577000      -0.51649000      -0.01961000       0.31222000      -2.10217000       0.01812000      -0.06997000       0.00221000      -0.08257000
Se       3.22836379       4.62001403      11.71785860     -11.70992703      13.57775226     -28.09767247       8.81829260      -1.68099227       0.87824022      -0.46548304      -0.04920543      -0.05982620       8.81829260      -1.68099227       0.87824022       2.33114228       7.55685084     -26.88856295       0.10484580      -0.22727630      -0.06561306      -0.46548304      -0.04920543      -0.05982620       0.10484580      -0.22727630      -0.06561306       0.01317694      -0.02278963      -0.82340244       0.94342000       0.20226000       0.01411000       0.28674000       0.93987000       0.00751000      -0.07076000       0.37058000       0.04378000
Se       3.15691224       4.71872230       8.31875093       6.47414826      10.11525669      18.94338989       8.87394515       3.94111084      -5.26663692       0.23600441      -0.04392420       0.17052633       8.87394515       3.94111084      -5.26663692      19.20537423       4.08430396      17.39502519      -0.11624714       0.26808548       0.10801317       0.23600441      -0.04392420       0.17052633      -0.11624714       0.26808548       0.10801317      -0.00659573       0.01546403       0.79395788       0.73923000      -0.10300000       0.01940000      -0.11654000       1.21962000       0.00224000       0.10042000      -0.17908000       0.04012000
W        0.03202665       6.54463050       9.95395943     -51.05439768      -6.67037051      11.52644733      -8.09321290     -24.01476007      -3.86220994       0.41018053       0.09747669      -0.84680232      -8.09321290     -24.01476007      -3.86220994     -21.63537984      23.30744758       7.76618992       0.13949195       0.13767304      -0.07177327       0.41018053       0.09747669      -0.84680232       0.13949195       0.13767304      -0.07177327      -0.04645778       0.02910944      -0.03416954      -0.91730000       0.68477000      -0.02914000      -0.18578000      -0.92410000       0.01579000       0.01989000       0.28060000       0.02852000
S        1.58410216       7.53658041      11.46398172      18.11065472       9.17449202       4.11162395       8.75250125       3.40729487       1.48757368       0.34619166       0.01058550       0.24191237       8.75250125       3.40729487       1.48757368       0.81200742     -19.84988861       1.46887210      -0.11689744       0.13567207       0.07601944       0.34619166       0.01058550       0.24191237      -0.11689744       0.13567207       0.07601944      -0.01068426      -0.01185373      -0.37507121       0.69482000       0.06039000      -0.01057000       0.00780000       0.53683000       0.01199000       0.14294000      -0.29053000      -0.00482000
Se       1.67920864       7.45909345       8.16513984      10.02950736       9.10140095      25.92338105       5.81130017      -5.32732340      -5.20083339       0.33659866      -0.14662104       0.13764387       5.81130017      -5.32732340      -5.20083339      -3.55749505      -6.00323555      32.85750037      -0.02665234       0.50864106      -0.37349170       0.33659866      -0.14662104       0.13764387      -0.02665234       0.50864106      -0.37349170       0.01710325      -0.00743486       1.05738310       0.38109000      -0.18959000       0.00650000      -0.08232000       0.60669000       0.01695000       0.15673000      -0.01160000       0.01236000
W        6.51328527       0.92624175       9.94052576       8.48928287     -27.85579723     -38.13211047     -11.56976198       6.15494074       5.11645419      -0.96745895       0.03236895       0.00891477     -11.56976198       6.15494074       5.11645419      15.15853834      17.63209402     -31.79262116       0.04467748      -0.87754808      -0.21494754      -0.96745895       0.03236895       0.00891477       0.04467748      -0.87754808      -0.21494754       0.00201165      -0.01959163      -0.28233736      -0.86325000      -0.34125000      -0.00316000       0.09098000      -0.83398000      -0.00047000      -0.06940000      -0.17302000       0.01648000
S        8.03255537       1.79027977      11.52852174      -4.69006546      17.43126468       0.20487085      13.34866164      -1.02628909      -1.59074634       0.27768456       0.05869601      -0.10130762      13.34866164      -1.02628909      -1.59074634      -5.68010133       3.74182298       1.85054581      -0.05689483       0.38011182       0.23327641       0.27768456       0.05869601      -0.10130762      -0.05689483       0.38011182       0.23327641      -0.00828349       0.04356951      -0.41114730       0.45896000       0.12725000      -0.01200000      -0.03540000       0.57575000      -0.01137000       0.02245000       0.08699000       0.00485000
Se       8.23785688       1.99616535       8.28993668     -23.43447199      -5.76239637      35.11540914       4.14108622      -7.99935331       4.36324160       0.53514441      -0.15562730       0.01015387       4.14108622      -7.99935331       4.36324160     -14.47391808     -18.35128124      22.91178493      -0.01588876       0.23320351       0.05684755       0.53514441      -0.15562730       0.01015387      -0.01588876       0.23320351       0.05684755       0.01036716      -0.01076392       0.88202820       0.71980000       0.13787000      -0.02081000       0.05375000       0.56307000      -0.00622000       0.50165000       0.15902000       0.02857000
Mo       4.90718304       3.77856015       9.94081780     -53.43897777      -6.71503529      22.14087156      -7.38472944      -9.96116733       0.11009612       0.53029513      -0.05360028      -0.44552485      -7.38472944      -9.96116733       0.11009612     -35.36292923       1.29149245      20.58211033      -0.10600555       0.65011989       0.17469067       0.53029513      -0.05360028      -0.44552485      -0.10600555       0.65011989       0.17469067      -0.04775105       0.00721679       0.01120979      -1.90908000      -0.14867000       0.02991000       0.21499000      -1.94471000       0.00825000       0.10695000      -0.01345000      -0.07630000
Se       6.45526739       4.53425271      11.80692966      -2.80651235      18.74258965     -30.33850914       9.31955460       6.15361201      -2.28808734      -0.17198097      -0.21863212      -0.04728886       9.31955460       6.15361201      -2.28808734       6.48069886      19.64262639     -35.02099501      -0.06172173      -0.36544761       0.16293080      -0.17198097      -0.21863212      -0.04728886      -0.06172173      -0.36544761       0.16293080      -0.02279026       0.03871971      -0.93211567       0.80805000       0.10919000       0.00114000       0.03724000       0.78405000      -0.01011000       0.24501000       0.03175000       0.02637000
S        6.47911702       4.81509427       8.49105234       2.90581993       1.26679995      14.09296803       4.36666377       0.93615589      -0.39816264      -0.11563174       0.10472311       0.23199356       4.36666377       0.93615589      -0.39816264       0.74866013     -19.10410959      10.75726773      -0.07965334      -0.04946099       0.15127318      -0.11563174       0.10472311       0.23199356      -0.07965334      -0.04946099       0.15127318       0.03078363       0.00001948       0.46699959       0.81718000      -0.10850000      -0.00504000       0.00252000       0.75059000       0.00185000       0.02767000       0.39627000       0.01556000
Mo       3.24841694       6.52740035      10.06074737      11.09873547     -13.32753632     -11.13306129     -12.12220021       0.95747733       4.45785343      -0.32295876       0.07063884       0.04779989     -12.12220021       0.95747733       4.45785343      14.10409524      36.08196998     -13.32242188       0.09475835      -0.52946828       0.50172105      -0.32295876       0.07063884       0.04779989       0.09475835      -0.52946828       0.50172105      -0.00360666       0.03976249      -0.01231891      -1.40626000       0.11237000       0.00902000      -0.27302000      -1.78949000       0.01223000      -0.03473000       0.06183000      -0.06976000
Se       4.88089978       7.44390756      11.84752271      -0.00633849      13.25858345     -19.12636897       6.28460695      -1.16693504      -1.97368074      -0.38102222       0.00533927       0.06509036       6.28460695      -1.16693504      -1.97368074      -0.25097736       8.22643554     -21.41187801      -0.09820761      -0.57890412       0.19441204      -0.38102222       0.00533927       0.06509036      -0.09820761      -0.57890412       0.19441204       0.05057162      -0.01865407      -1.01822989       0.48157000       0.01475000       0.00477000      -0.02408000       0.61768000       0.00078000       0.04288000       0.08226000       0.01820000
S        4.88586440       7.48021741       8.59229158      11.97443669      14.26836613      -1.87836940       9.30429280       2.26881437       1.67613542      -0.03824753       0.02398992       0.22449468       9.30429280       2.26881437       1.67613542       5.80071605      -3.91386631       6.01349225       0.13630249       0.06975950      -0.02670314      -0.03824753       0.02398992       0.22449468       0.13630249       0.06975950      -0.02670314       0.00026105       0.01340563       0.34233080       0.84340000       0.14504000      -0.00398000      -0.02136000       0.88884000      -0.01113000      -0.13946000      -0.13194000       0.00589000
27
Lattice="9.750095355686083 0.0 0.0 -4.875047677843042 8.443582578024147 0.0 -0.0 0.0 19.148212269031898" Properties=species:S:1:pos:R:3:raman_tensor:R:27:born_effective_charge:R:9 susceptibility_tensor="_JSON [[-608.5861527913048, -0.28075547580012244, -0.0009742072868328025], [-0.28076839665391384, -607.3051769629699, -0.04996908130224795], [-0.0012176963859497829, -0.04966638207701905, -33.13230322332092]]" pbc="T T T"
Mo       0.00594756       0.93396163       9.60598895      44.29787518     -26.91437999      -8.76399547     -33.56952729      12.36317063      -0.33521700      -0.07645887      -0.03596776       0.67232768     -33.56952729      12.36317063      -0.33521700      11.97162826      -3.96469401     -12.99384534      -0.02064007      -0.36390775      -0.54954985      -0.07645887      -0.03596776       0.67232768      -0.02064007      -0.36390775      -0.54954985       0.02134932      -0.01795383      -0.20012774      -1.08343000      -0.14693000       0.01578000      -0.22875000      -0.94308000       0.00201000       0.16691000      -0.07760000      -0.06563000
S        1.57659042       1.88654595      11.16892923      11.07524522       5.01359128     -13.79434815       8.24142014       3.34810891       1.03958832      -0.10974311      -0.04605822       0.05003038       8.24142014       3.34810891       1.03958832       6.15797944     -13.82329601     -10.25311759       0.03571679       0.05703379      -0.13914699      -0.10974311      -0.04605822       0.05003038       0.03571679       0.05703379      -0.13914699       0.00230181      -0.00876757      -0.78718689       0.22598000      -0.14180000      -0.02832000       0.05848000       0.44455000      -0.00795000       0.01016000      -0.04761000       0.05133000
S        1.60467069       1.79060501       7.99527319       1.17749048       9.88759171       3.29655979      12.41337444       3.07969166      -0.05163818      -0.03579297       0.07184889       0.06424251      12.41337444       3.07969166      -0.05163818       3.20176396     -11.26749593      -6.81456338      -0.05554946      -0.19673638      -0.10211251      -0.03579297       0.07184889       0.06424251      -0.05554946      -0.19673638      -0.10211251      -0.01028204      -0.00061243       0.68495943       0.47386000       0.03222000      -0.01671000       0.19945000       0.33491000      -0.02922000      -0.12791000      -0.29618000       0.02168000
Mo      -1.64279357       3.72287891       9.54914589      -8.17058360     -22.55056813      10.33376490     -19.14156582     -12.48463054       0.31061184       0.25096849       0.10178234      -0.19552395     -19.14156582     -12.48463054       0.31061184     -20.29913839      22.89088838       8.23345043      -0.14241039       0.21112771      -0.03738490       0.25096849       0.10178234      -0.19552395      -0.14241039       0.21112771      -0.03738490      -0.01168410       0.00024395       0.14151713      -1.11075000      -0.37279000       0.00895000       0.23506000      -0.83575000      -0.00003000       0.04086000       0.18794000      -0.06987000
S       -0.10793356       4.59385493      11.10818614      15.85210370       9.93368360      -6.39536159      11.52226846       3.21515060       7.54817205      -0.03572698       0.00263573       0.25584593      11.52226846       3.21515060       7.54817205      11.84029761      -9.73821616       2.31193215       0.14881622       0.11536747      -0.17749011      -0.03572698       0.00263573       0.25584593       0.14881622       0.11536747      -0.17749011      -0.00041869      -0.02450017      -0.70380504       0.69842000      -0.04618000      -0.00673000      -0.04269000       0.39287000       0.00158000       0.15517000       0.27465000       0.06463000
S       -0.13669634       4.71748614       8.02657100      14.26882257       8.41221733      -3.46908482       9.22630260       4.14993719      -5.31174369      -0.25516082      -0.03845615       0.28516982       9.22630260       4.14993719      -5.31174369      10.56875394     -17.49041805      -4.18689565      -0.13671772      -0.11514205       0.14300364      -0.25516082      -0.03845615       0.28516982      -0.13671772      -0.11514205       0.14300364       0.00257292       0.00359139       0.64086184       0.35889000       0.07986000      -0.00143000       0.07711000       0.49945000       0.00986000      -0.19485000       0.20396000       0.01702000
Mo      -3.20719637       6.54426400       9.61739656      19.76917253     -20.44343098     -11.16056071     -24.37824807      -1.55436138       1.18181076      -0.37035203       0.04303208      -0.05870036     -24.37824807      -1.55436138       1.18181076       7.20337859      30.95649133     -15.22701204       0.27393327      -0.42412679       0.36519944      -0.37035203       0.04303208      -0.05870036       0.27393327      -0.42412679       0.36519944       0.00787871       0.00887990      -0.04382592      -1.23805000       0.16892000       0.01763000       0.13172000      -1.04372000       0.01118000       0.17318000      -0.11109000      -0.09668000
S       -1.57210538       7.55310637      11.14913654      -3.68164185      10.54635416       9.81406084      10.70874999       0.69321015      -4.10374490       0.05659375      -0.02021228      -0.01604231      10.70874999       0.69321015      -4.10374490      -4.07614321     -14.98923423       6.62206239      -0.03779321       0.06786984       0.03594319       0.05659375      -0.02021228      -0.01604231      -0.03779321       0.06786984       0.03594319       0.00123125       0.01512890      -0.71240011       0.52340000      -0.12245000       0.00227000       0.02614000       0.53045000      -0.00644000       0.01210000      -0.07461000       0.05915000
S       -1.51438481       7.52921864       8.14717968      -3.96156261      11.64869643      -8.02917909      11.79641733      -1.23305489       1.81698613      -0.11120682      -0.07869946       0.01658725      11.79641733      -1.23305489       1.81698613      -6.89743870     -23.12408563     -14.50255926      -0.03549317      -0.27570522      -0.23276675      -0.11120682      -0.07869946       0.01658725      -0.03549317      -0.27570522      -0.23276675       0.00354953      -0.01833327       0.52456121       0.94794000      -0.22881000      -0.00663000      -0.02930000       0.74977000      -0.01058000       0.20134000      -0.06062000       0.04598000
Mo       3.29406972       0.93152411       9.55548345     -30.30453784     -34.39652680       5.88429155     -20.51796200      -8.84684794      -4.83100208       0.19252427       0.01740600      -0.72247907     -20.51796200      -8.84684794      -4.83100208      -4.09409411      23.44479884      17.31435482      -0.24126904       0.46114035       0.13148056       0.19252427       0.01740600      -0.72247907      -0.24126904       0.46114035       0.13148056      -0.03385954      -0.00087419       0.16730682      -1.08674000       0.08639000      -0.01429000       0.18203000      -1.05380000      -0.00912000       0.13739000      -0.03383000      -0.08399000
S        4.83136725       1.85105560      11.04695554       5.00961696      22.09914222      15.12896213      17.87784179       0.14727626       3.00425362       0.22733390       0.13020557       0.18973518      17.87784179       0.14727626       3.00425362      -1.22644106       8.33093955       1.39829446       0.04848639       0.12908316       0.21587930       0.22733390       0.13020557       0.18973518       0.04848639       0.12908316       0.21587930      -0.00590478      -0.02243132      -0.61667544       0.57232000       0.11995000       0.00132000       0.01909000       0.76164000      -0.01739000      -0.04166000       0.12610000       0.06508000
S        4.87777770       1.92359631       8.05114124       0.92094435      10.58194149      -9.50891248       9.91694398      -1.70535548      -0.54666344      -0.24287735      -0.05745028       0.01843626       9.91694398      -1.70535548      -0.54666344      -0.96052045     -20.15070546      -2.40010885       0.06845079      -0.04011908       0.06999161      -0.24287735      -0.05745028       0.01843626       0.06845079      -0.04011908       0.06999161       0.00725679       0.00879656       0.59217643       0.43144000       0.02399000       0.00966000      -0.07390000       0.58346000       0.00226000       0.09814000       0.22520000       0.02401000
Mo       1.58244048       3.68173351       9.46422256     -28.86514687     -10.42941652      27.74505553     -12.62740814     -10.95459167      -0.57653508       0.65015886      -0.16759239      -0.26730234     -12.62740814     -10.95459167      -0.57653508      -7.06924053      56.19028216      28.65211475       0.09092421       0.72600874       0.57287809       0.65015886      -0.16759239      -0.26730234       0.09092421       0.72600874       0.57287809      -0.01410241       0.03584979       0.24758792      -0.66811000      -0.15490000      -0.02027000       0.18149000      -1.12354000      -0.01104000      -0.07440000       0.17247000      -0.06620000
S        3.10062782       4.66425062      11.03047788      11.08138383      13.96934206       8.11083314      12.35708603       3.50948366      -1.15155646       0.05384968       0.04959476      -0.15759362      12.35708603       3.50948366      -1.15155646       7.75069409      -9.86517187       3.26857687      -0.08046236      -0.16526655       0.14488556       0.05384968       0.04959476      -0.15759362      -0.08046236      -0.16526655       0.14488556      -0.00977252      -0.01189283      -0.66426486       0.73572000       0.10630000       0.00442000      -0.02686000       0.64984000      -0.00708000       0.37245000       0.00736000       0.06765000
S        3.20427134       4.68404331       8.00580330      -1.89324126      21.19587423     -13.70919756      15.04512964      -3.01204912       1.34682153      -0.38707679       0.00051999      -0.17564276      15.04512964      -3.01204912       1.34682153      -0.03075578      -7.42333170      -4.12536742       0.12501113      -0.19041816       0.24532426      -0.38707679       0.00051999      -0.17564276       0.12501113      -0.19041816       0.24532426       0.01318876       0.01083754       0.61641515       0.38490000       0.00736000       0.00133000      -0.07056000       0.55816000       0.00899000      -0.00101000       0.06982000       0.00862000
Mo       0.02886028       6.57390429       9.67492212      -9.40520466     -18.86952120     -17.85158626     -12.21117767       5.01867999       1.48817924      -0.12337754      -0.00926840       0.26368206     -12.21117767       5.01867999       1.48817924       1.17910989      41.36030590     -18.73968923      -0.06749296      -0.42378556       0.16209315      -0.12337754      -0.00926840       0.26368206      -0.06749296      -0.42378556       0.16209315       0.00878049       0.01696625      -0.04322626      -1.18593000      -0.02529000      -0.02546000      -0.09291000      -1.06954000      -0.00119000      -0.19286000      -0.07175000      -0.08638000
S        1.72995942       7.68843769      11.23630239      -4.89251070      -5.92035797     -11.31242441       4.17826871      -5.53134606       0.01840303      -0.03336209       0.04550816       0.03139124       4.17826871      -5.53134606       0.01840303      -8.12611437     -31.48274033       0.17726408      -0.11877049      -0.03459253      -0.17216719      -0.03336209       0.04550816       0.03139124      -0.11877049      -0.03459253      -0.17216719      -0.00620968       0.01224223      -0.84961658       0.25465000      -0.01997000      -0.00064000      -0.06193000       0.37225000       0.01112000      -0.12994000      -0.34140000       0.04494000
S        1.62319587       7.56305147       8.02793601       5.62387731       7.63739310       8.90685974      11.93841765      -1.19331138       1.82759208       0.12615661       0.01713363      -0.08503750      11.93841765      -1.19331138       1.82759208      -2.57595631      -8.97871742       3.57838564       0.16762297      -0.02762657      -0.09389797       0.12615661       0.01713363      -0.08503750       0.16762297      -0.02762657      -0.09389797      -0.00851073       0.00220934       0.68256482       0.48561000       0.06851000      -0.00957000      -0.00431000       0.56611000       0.00730000      -0.16536000       0.04952000       0.02529000
Mo       6.51920626       0.96457693       9.60530644      -2.54024427      -9.35112619      -7.95450743     -22.35135038      -0.86622393      -0.07384461      -0.38355973      -0.08428240      -0.12491356     -22.35135038      -0.86622393      -0.07384461       3.51244250      28.82641285     -12.92244619       0.21521613      -0.25856908       0.05426326      -0.38355973      -0.08428240      -0.12491356       0.21521613      -0.25856908       0.05426326      -0.00463842       0.01665332      -0.03891577      -0.73603000       0.11548000       0.01261000      -0.15105000      -1.46697000      -0.00832000      -0.12013000      -0.10498000      -0.08911000
S        8.17389494       1.89073849      11.11949625     -10.94646898      15.63706454      -0.02688983      11.65563193       3.41486973      -6.78636297       0.28109184      -0.13078796      -0.07787847      11.65563193       3.41486973      -6.78636297      -3.54563943      -7.94554645      -8.19824484      -0.11187114       0.32529841      -0.02746545       0.28109184      -0.13078796      -0.07787847      -0.11187114       0.32529841      -0.02746545       0.00577707      -0.00722264      -0.65476670       0.45926000       0.10217000       0.02224000       0.04359000       0.59936000      -0.01682000       0.00258000      -0.04488000       0.05702000
S        8.19056760       1.82629036       8.07902651     -14.16967728      15.69573660      -6.47412097      13.18044905       0.03335146       4.81792770      -0.22444825       0.17849040      -0.23790410      13.18044905       0.03335146       4.81792770      -5.38680732      -4.99107024      -1.66385188       0.16564604       0.00551821       0.15359578      -0.22444825       0.17849040      -0.23790410       0.16564604       0.00551821       0.15359578       0.00044623      -0.00186005       0.59429616       0.58840000       0.05622000       0.00553000       0.01314000       0.53327000      -0.01202000       0.09346000      -0.04629000       0.03009000
Mo       4.79948444       3.79571212       9.52399064      28.52751549     -42.19810562      23.96025563     -37.76448613       9.91244446       0.93742079       0.61273154      -0.04359621       0.60783231     -37.76448613       9.91244446       0.93742079       5.26353257      -4.16680725      20.30587519      -0.04801282       0.34018817      -0.63292624       0.61273154      -0.04359621       0.60783231      -0.04801282       0.34018817      -0.63292624       0.03055863      -0.02790300       0.15858991      -0.87812000      -0.24084000       0.00331000      -0.16061000      -1.10539000       0.00172000      -0.06534000      -0.00812000      -0.09633000
S        6.54757904       4.63919287      11.09336599     -21.94453943      13.44647167       1.88378555      11.09967675      -1.96726046      -0.98128535       0.02210497      -0.01177208      -0.15449019      11.09967675      -1.96726046      -0.98128535      -3.94313503     -14.65197088       7.97095372       0.17694753       0.14385395      -0.10779132       0.02210497      -0.01177208      -0.15449019       0.17694753       0.14385395      -0.10779132       0.02514671      -0.00157728      -0.69134824       0.57386000      -0.01162000       0.00729000      -0.00841000       0.41388000       0.01354000      -0.26727000       0.16564000       0.05770000
S        6.46031568       4.60185001       8.04850871      -0.03578605      21.55896375      -5.83977400      16.48779914       4.05368998      -0.42159965      -0.30586391       0.09595179      -0.05578889      16.48779914       4.05368998      -0.42159965       7.79072910       2.81090589      -3.82604584      -0.13953745      -0.25113288       0.22494003      -0.30586391       0.09595179      -0.05578889      -0.13953745      -0.25113288       0.22494003      -0.00869620       0.01359123       0.59802367       0.43472000       0.02166000       0.00138000      -0.00606000       0.50318000       0.00365000      -0.06986000      -0.20461000       0.02053000
Mo       3.24980428       6.62772482       9.56562355     -13.10299842     -35.94925488       1.27520500     -25.77341584       3.79413089      -0.81404269       0.02428906       0.02596721      -0.12866887     -25.77341584       3.79413089      -0.81404269       6.04041568       1.46789273       2.06481000      -0.20317004      -0.00191056      -0.40984948       0.02428906       0.02596721      -0.12866887      -0.20317004      -0.00191056      -0.40984948      -0.00208488      -0.02950264       0.15319689      -1.28095000       0.48820000       0.00320000      -0.16392000      -0.77432000       0.01908000      -0.03240000       0.00345000      -0.08361000
S        4.92808820       7.52317358      11.10457860      -1.58611815      13.34158275       7.70970151      11.23512510      -4.02878214      -0.14019400       0.17218738       0.01063566      -0.03739811      11.23512510      -4.02878214      -0.14019400      -6.96391181     -16.11623632       4.34878435      -0.04931981       0.13979292       0.09367840       0.17218738       0.01063566      -0.03739811      -0.04931981       0.13979292       0.09367840      -0.01212562       0.02035870      -0.63739595       0.75371000       0.03968000       0.00232000      -0.01123000       0.53562000       0.02716000      -0.09470000       0.01590000       0.05464000
S        4.95402345       7.46477051       7.99439568      -2.01159887      16.26120238       0.12357372      10.47290227      -2.78170739      -0.13553746       0.13488899      -0.06918545       0.04556794      10.47290227      -2.78170739      -0.13553746      -7.88046599       1.40674608       9.85887253      -0.04028124       0.15487681       0.06960983       0.13488899      -0.06918545       0.04556794      -0.04028124       0.15487681       0.06960983      -0.00918237       0.01024649       0.73887868       0.36503000      -0.00532000       0.01083000      -0.03481000       0.38734000       0.01776000       0.11396000       0.02155000       0.02245000
27
Lattice="9.376744959876408 0.0 0.0 -4.688372479938204 8.120261135252969 0.0 -0.0 0.0 19.21670112077071" Properties=species:S:1:pos:R:3:raman_tensor:R:27:born_effective_charge:R:9 susceptibility_tensor="_JSON [[-502.38914913224613, 0.14269915339018716, 0.025129669897039505], [0.14268320151884922, -497.08765379457054, 0.08674546127653592], [0.013227594449654712, 0.05716184260271946, -31.583897059763046]]" pbc="T T T"
W       -0.02906791       0.94855152       9.65026461      24.59987956     -36.81983654      -9.52884576     -28.28993063       2.13353758      -0.10385093      -0.08233998      -0.09380822       0.49083838     -28.28993063       2.13353758      -0.10385093      -0.42728406     -40.83569067      -9.82796361       0.02468710      -0.10780910      -0.68485547      -0.08233998      -0.09380822       0.49083838       0.02468710      -0.10780910      -0.68485547       0.02787073      -0.04312801      -0.07276858      -0.53574000       0.06596000      -0.01990000      -0.08448000      -0.70821000      -0.01091000      -0.13171000       0.18992000      -0.05093000
S        1.54556887       1.77867475      11.22190083       0.12333333       9.65027899     -12.11015908       7.63805186       1.56206802       2.05581006       0.16537565      -0.06902564       0.00085944       7.63805186       1.56206802       2.05581006       5.57488791      -6.30792559     -11.53651005       0.09649019       0.21020024       0.04005649       0.16537565      -0.06902564       0.00085944       0.09649019       0.21020024       0.04005649      -0.01912377      -0.00851462      -0.63214259       0.33225000      -0.03668000      -0.00453000       0.06882000       0.26721000       0.00327000       0.02550000       0.12226000       0.02000000
S        1.58626394       1.71472535       7.98889294     -10.57394256      16.87812028      23.64991053      10.61069610      -0.33815726       0.40291737       0.23884923      -0.02960752      -0.02425453      10.61069610      -0.33815726       0.40291737      -0.94131969      11.49674837      21.65251290      -0.09860418       0.13729903       0.02353683       0.23884923      -0.02960752      -0.02425453      -0.09860418       0.13729903       0.02353683       0.02212235      -0.00820837       0.69259311       0.27740000      -0.07845000      -0.01013000       0.02850000       0.27174000      -0.00308000       0.17573000      -0.31800000       0.00208000
W       -1.49802877       3.60817146       9.63920005     -34.83020268     -16.91847339     -15.71426669     -17.40759909     -10.48748922      -1.66287730      -0.26896052       0.00601909      -0.50323598     -17.40759909     -10.48748922      -1.66287730     -16.84926255       8.20657176      -8.50174802      -0.00341556      -0.17315398      -0.18579649      -0.26896052       0.00601909      -0.50323598      -0.00341556      -0.17315398      -0.18579649      -0.04281971      -0.02594785      -0.07604024      -0.71767000       0.00910000       0.03548000       0.23773000      -0.48810000      -0.02208000       0.22234000      -0.28563000      -0.00450000
S        0.00243795       4.39750585      11.23437190      13.52739757      19.66138841     -10.44240232      12.55812330       2.28853770       2.75977986      -0.02807229       0.09211633       0.37229510      12.55812330       2.28853770       2.75977986       3.99398759      11.92977666     -12.34188519       0.09366781      -0.03993676       0.26585965      -0.02807229       0.09211633       0.37229510       0.09366781      -0.03993676       0.26585965       0.00555804       0.02016676      -0.68879965       0.27173000       0.01091000      -0.00917000       0.04478000       0.39735000      -0.01014000      -0.00836000       0.10695000       0.01581000
S        0.08457824       4.55841079       8.04393443       2.46750978      -1.49296334      10.82717893       4.71612945      -1.97925948      -1.84870593       0.18437998       0.01787248       0.02692689       4.71612945      -1.97925948      -1.84870593      -0.79278411     -24.01740580       3.35637492       0.01176391      -0.05453808      -0.16157702       0.18437998       0.01787248       0.02692689       0.01176391      -0.05453808      -0.16157702       0.01325586      -0.01923869       0.61495004       0.70108000      -0.08774000       0.00065000       0.01583000       0.40637000      -0.00253000       0.13825000       0.18719000       0.01974000
W       -3.15049254       6.31851959       9.51927148      14.59974259      -6.76713771      12.37359605      -7.66669917       3.64683077       1.04504579       0.28888481       0.05315358       0.12746451      -7.66669917       3.64683077       1.04504579       4.57002484      25.92646904      10.67732723      -0.06431337       0.25292958       0.25804562       0.28888481       0.05315358       0.12746451      -0.06431337       0.25292958       0.25804562       0.01307934       0.01345303      -0.01688605      -0.40548000       0.19671000      -0.01313000      -0.04587000      -0.48618000       0.04421000      -0.03291000       0.18608000       0.01518000
S       -1.61730097       7.21231092      11.11688129      11.05801834       3.91585288      -9.01608433       6.01131581       3.17145010      -0.85320531      -0.07902125      -0.18016934       0.04101287       6.01131581       3.17145010      -0.85320531       5.29039118     -14.31882674      -2.98405657      -0.15189426       0.02609896      -0.19523335      -0.07902125      -0.18016934       0.04101287      -0.15189426       0.02609896      -0.19523335      -0.00642547      -0.02786774      -0.57539528       0.60117000       0.00839000      -0.01024000      -0.01987000       0.43387000       0.00634000       0.25614000       0.05300000       0.01717000
S       -1.64055530       7.24963037       7.96873294      15.95880664       5.62802499      12.72766305       6.48859121       7.58807514       0.71127292      -0.11667562       0.13653830       0.26899669       6.48859121       7.58807514       0.71127292      10.10879733      -9.38843223      13.96113421       0.08336615       0.10999059       0.08482202      -0.11667562       0.13653830       0.26899669       0.08336615       0.10999059       0.08482202      -0.00774837       0.02421569       0.66297480       0.35748000       0.08625000       0.00672000       0.03702000       0.55591000      -0.00415000      -0.25752000      -0.01545000       0.02420000
W        3.11495468       0.89257235       9.65176489      -9.00670082     -20.23683563     -11.16766947     -13.86617365      -0.34396572       0.11409454      -0.36803023      -0.00040135       0.07677364     -13.86617365      -0.34396572       0.11409454      -9.86781370       3.06236757     -13.45261796       0.01295558      -0.45647718       0.04053791      -0.36803023      -0.00040135       0.07677364       0.01295558      -0.45647718       0.04053791      -0.01147432       0.00923722      -0.05166967      -0.55145000      -0.26104000      -0.01980000       0.51132000      -0.31780000      -0.04610000       0.18903000      -0.07093000      -0.02126000
S        4.73835053       1.88969541      11.24543646     -14.76208214      -0.42748415     -14.59895766       6.87722801      -6.89432202      -0.56601278      -0.09293340       0.06837402      -0.20496918       6.87722801      -6.89432202      -0.56601278      -6.40913228     -15.00100076     -13.03307832      -0.01059766      -0.10893103       0.07399966      -0.09293340       0.06837402      -0.20496918      -0.01059766      -0.10893103       0.07399966       0.00790214      -0.00235577      -0.72264473       0.27071000       0.01337000       0.00199000      -0.12566000       0.29646000      -0.00503000      -0.30453000      -0.22968000       0.01338000
S        4.59854326       1.83849838       7.97079582       7.85158127       3.34606255      21.87464708       7.28683414      -0.22917376      -1.82200764       0.20875137      -0.01254544       0.05670770       7.28683414      -0.22917376      -1.82200764       3.37036058      -7.64069682      19.24603579       0.02246287       0.04837625      -0.04873202       0.20875137      -0.01254544       0.05670770       0.02246287       0.04837625      -0.04873202      -0.02129232       0.01180570       0.69267889       0.34485000       0.20695000       0.00023000       0.07293000       0.47378000       0.00267000      -0.17188000       0.21532000       0.00395000
W        1.61092478       3.56110020       9.67698833     -17.61410175      -9.55826184     -21.48483457      -7.35055513      -7.65518569      -2.84041554      -0.76069845      -0.09463098      -0.35098979      -7.35055513      -7.65518569      -2.84041554       2.29799312      47.54819726     -17.54087824      -0.09739775      -0.72180573       0.51837788      -0.76069845      -0.09463098      -0.35098979      -0.09739775      -0.72180573       0.51837788      -0.01687887       0.02120848      -0.11770167      -0.26623000       0.23662000      -0.04101000      -0.10551000      -0.62379000      -0.02055000      -0.25309000      -0.22233000      -0.00076000
S        3.11036007       4.51180837      11.14585543       9.13670043      13.52065598      -3.40258959       9.31838582       1.63361383      -1.43765134       0.25852633       0.01148175       0.20704056       9.31838582       1.63361383      -1.43765134      -0.05391665      -8.26027217      -4.00685399      -0.06910985       0.20759725       0.04158165       0.25852633       0.01148175       0.20704056      -0.06910985       0.20759725       0.04158165       0.00565977       0.00528438      -0.55345609       0.68720000      -0.02519000      -0.00688000      -0.04741000       0.71285000      -0.00109000       0.09652000      -0.04749000       0.04572000
S        3.18687431       4.50243163       8.00136401      -8.22612651       7.07452948      18.09172512       7.04218054      -1.99146289       0.19808463       0.18689105       0.09139178      -0.19179789       7.04218054      -1.99146289       0.19808463      -5.55275569      -2.13132275      14.97172298       0.20360784       0.22364054       0.08157870       0.18689105       0.09139178      -0.19179789       0.20360784       0.22364054       0.08157870      -0.00890340      -0.01124288       0.68245346       0.59024000       0.00861000       0.00070000      -0.02959000       0.46858000       0.01738000       0.01260000       0.05795000       0.00416000
Mo       0.03225600       6.33099066       9.53633716     -23.75054063     -25.59820909      19.43561460     -19.89721822      -5.08456016       1.47233059       0.62213869      -0.04208343      -0.22093275     -19.89721822      -5.08456016       1.47233059      -5.83988547      10.51466888      23.32188525       0.12760426       0.76445235      -0.15569934       0.62213869      -0.04208343      -0.22093275       0.12760426       0.76445235      -0.15569934      -0.03818611      -0.01568114       0.09674126      -1.31014000      -0.09314000      -0.01361000       0.02602000      -1.48739000       0.02443000      -0.09290000       0.31474000      -0.09001000
S        1.56385352       7.20921659      11.15401320      -8.03775798      10.91223799      -8.04730964       4.96108522      -1.56947259      -0.52552155       0.00593884       0.00259345      -0.03832130       4.96108522      -1.56947259      -0.52552155      -5.80484566      -9.70872991     -11.83931146      -0.03875929      -0.15605658      -0.02259218       0.00593884       0.00259345      -0.03832130      -0.03875929      -0.15605658      -0.02259218      -0.00800749       0.01520924      -0.61446880       0.54911000       0.09561000       0.00916000       0.09680000       0.69177000       0.00210000      -0.09901000      -0.14999000       0.02751000
S        1.57463678       7.20040245       7.99686317      -4.35085892      12.93461137       8.38267413       7.33301063      -1.52170384       1.55682784      -0.12884088      -0.03428738      -0.05061596       7.33301063      -1.52170384       1.55682784      -2.16051857      -4.37941737      13.99433536      -0.11687747       0.09105041       0.10325490      -0.12884088      -0.03428738      -0.05061596      -0.11687747       0.09105041       0.10325490       0.02871712       0.00430496       0.65456603       0.64111000      -0.11378000       0.00506000      -0.05886000       0.58294000      -0.00271000       0.24302000      -0.14454000       0.03333000
W        6.21856349       0.90973180       9.59831744       4.76449501      -9.48933188       1.53325464     -14.96431421       3.09552676       2.38413921       0.23313747       0.06842293      -0.13131212     -14.96431421       3.09552676       2.38413921      14.29993647      -7.40589137       3.39341176      -0.10661114       0.15882952      -0.28848494       0.23313747       0.06842293      -0.13131212      -0.10661114       0.15882952      -0.28848494       0.01551775      -0.00028117      -0.00663792      -0.91199000      -0.04296000       0.03429000      -0.17645000      -0.74281000      -0.01104000       0.15112000      -0.01983000      -0.01156000
S        7.82461237       1.68340702      11.25087498      -0.39834281      19.61401354      -9.61830976      11.63977291       0.55352208      -2.06733670       0.06478387       0.00051064      -0.08271308      11.63977291       0.55352208      -2.06733670      -5.66677627      15.29250016     -17.85782521      -0.05029875      -0.01305728       0.39435978       0.06478387       0.00051064      -0.08271308      -0.05029875      -0.01305728       0.39435978      -0.00458844       0.00728294      -0.69660148       0.24476000      -0.01042000       0.00821000      -0.00565000       0.17995000      -0.00104000       0.18449000       0.23083000       0.01355000
S        7.78663655       1.72513354       8.07150206       8.98086946      19.59341926       2.02073743      12.83178916       2.71199237      -1.69685912      -0.07016849      -0.00899830       0.03861624      12.83178916       2.71199237      -1.69685912       2.14971143      10.00496170      13.06634659       0.04233171      -0.06373031       0.15798877      -0.07016849      -0.00899830       0.03861624       0.04233171      -0.06373031       0.15798877       0.00264808       0.00007478       0.57281669       0.51123000      -0.11441000       0.00582000      -0.06868000       0.56379000       0.00350000      -0.24159000      -0.25178000       0.02887000
Mo       4.65330345       3.62814393       9.62260321      37.19566049     -15.58446372     -12.86814697     -17.63562946      12.26519534       0.06353696      -0.38483875      -0.15323762       0.57405956     -17.63562946      12.26519534       0.06353696      15.63925041      21.58693050      -9.83159302       0.04880855      -0.22778881      -0.14919030      -0.38483875      -0.15323762       0.57405956       0.04880855      -0.22778881      -0.14919030       0.04634983      -0.00981231      -0.04231499      -1.23791000       0.13384000       0.02517000      -0.36776000      -1.45226000      -0.00832000       0.21105000      -0.19733000      -0.07413000
S        6.25447642       4.51021433      11.16301487      -2.28242652      14.06906294      -9.49714376       8.96348029      -0.42479616      -1.16979645       0.10984190       0.03548739      -0.10838253       8.96348029      -0.42479616      -1.16979645      -0.40407790      -2.61783658     -11.95466355      -0.02714666      -0.05728280       0.02036228       0.10984190       0.03548739      -0.10838253      -0.02714666      -0.05728280       0.02036228       0.00250616       0.01891551      -0.60216284       0.38001000      -0.00103000       0.00622000      -0.01088000       0.50555000       0.01292000      -0.08179000       0.14383000       0.02581000
S        6.32630229       4.50149395       7.89334391      -8.83600332       4.85979499      19.93512494       5.90581724      -2.99746092       1.85214798       0.27785087      -0.09616470      -0.10292109       5.90581724      -2.99746092       1.85214798      -5.24059999      -8.16628432      17.15830942      -0.02051609       0.19665704      -0.05037916       0.27785087      -0.09616470      -0.10292109      -0.02051609       0.19665704      -0.05037916      -0.01189255      -0.01534288       0.81913975       0.22181000       0.02686000      -0.00159000      -0.03780000       0.00792000      -0.00514000       0.07879000      -0.17438000      -0.00898000
Mo       3.09685756       6.34186769       9.61847744       9.59906558     -25.61687212      -7.29963578     -11.21444080       4.30780332       0.13540044      -0.40281015       0.10606118       0.00438817     -11.21444080       4.30780332       0.13540044       0.13466721      19.50015366     -13.01546747       0.03049788      -0.37544891      -0.06468123      -0.40281015       0.10606118       0.00438817       0.03049788      -0.37544891      -0.06468123       0.01012492      -0.00286431      -0.07087194      -1.59797000      -0.27860000       0.00394000       0.07082000      -1.47413000       0.03465000      -0.16424000       0.28018000      -0.09423000
S        4.71068913       7.23181455      11.17276669     -10.37507981       5.33781590     -10.76772822       5.64544507      -1.29167415       1.91051108       0.06998216       0.12607586      -0.10934238       5.64544507      -1.29167415       1.91051108       0.47658986     -11.17434802     -12.78343947       0.14941741      -0.09248897      -0.08758790       0.06998216       0.12607586      -0.10934238       0.14941741      -0.09248897      -0.08758790       0.01294641       0.01395541      -0.61141229       0.26831000      -0.04485000       0.00734000      -0.09031000       0.43822000      -0.00058000      -0.13770000      -0.18581000       0.01825000
S        4.64983406       7.31311093       7.99395638      -6.77892359       1.64292235      15.04458068       2.82074003      -1.99085503      -0.14149869      -0.12460150      -0.00311916      -0.12137420       2.82074003      -1.99085503      -0.14149869      -1.95782882     -14.62576777      16.25162156      -0.08092405       0.22503052       0.07548992      -0.12460150      -0.00311916      -0.12137420      -0.08092405       0.22503052       0.07548992      -0.01531565       0.01693941       0.64857069       0.28413000       0.08912000      -0.00099000       0.06423000       0.52639000       0.00303000      -0.00737000       0.22492000       0.02765000
27
Lattice="9.37224166183332 0.0 0.0 -4.68612083091666 8.116361279147656 0.0 -0.0 0.0 19.182167009274252" Properties=species:S:1:pos:R:3:raman_tensor:R:27:born_effective_charge:R:9 susceptibility_tensor="_JSON [[-504.62287187889734, 0.9158923113218268, 0.014129942864403926], [0.9158806997061668, -501.10994325870405, -0.03343738903546838], [-0.007486589196818446, -0.00046504520718507756, -31.43483632926168]]" pbc="T T T"
Mo      -0.02867906       0.90329665       9.57440091      29.73668584     -16.41762579       2.70680514     -12.77804135       8.89405585      -1.83301265       0.05500904      -0.05237000       0.32744018     -12.77804135       8.89405585      -1.83301265      10.56361140      19.04897848       3.48515499       0.03250507       0.09190038       0.16092023       0.05500904      -0.05237000       0.32744018       0.03250507       0.09190038       0.16092023       0.03261405      -0.00501407       0.02635522      -1.28420000       0.11878000       0.00045000      -0.31906000      -1.36259000       0.01285000       0.09168000       0.10044000      -0.06424000
S        1.50124567       1.76648011      11.14546978       8.18166232       9.31023238      -8.67377831       7.60087865       1.97575631      -0.54993836       0.02898252       0.00260483       0.02086592       7.60087865       1.97575631      -0.54993836       1.70817870      -5.43222331      -8.69925935      -0.11041511       0.00435130       0.00247079       0.02898252       0.00260483       0.02086592      -0.11041511       0.00435130       0.00247079      -0.01642720       0.00664429      -0.60743867       0.66893000       0.05254000      -0.00259000       0.04176000       0.68571000       0.00771000       0.23860000       0.11991000       0.03001000
S        1.59759231       1.76104421       7.99752125      -5.07693127       9.50411706      16.75873308       7.31063721      -2.60093918       0.41785286       0.10376299      -0.03457059      -0.07412656       7.31063721      -2.60093918       0.41785286      -4.10496059      -2.69398678      15.84468344       0.05453303       0.07293984      -0.06533339       0.10376299      -0.03457059      -0.07412656       0.05453303       0.07293984      -0.06533339       0.00843892      -0.00932338       0.66590435       0.62068000      -0.06613000       0.00211000      -0.08344000       0.57469000      -0.00026000       0.04791000      -0.16092000       0.02677000
Mo      -1.55860379       3.67007611       9.61104638       9.81216155     -22.34664850      -4.70530511     -23.21808319       0.60033188       1.00090927      -0.16369783      -0.02186009       0.06639718     -23.21808319       0.60033188       1.00090927       8.96045548      -3.68302613      -4.91934814       0.05726877      -0.14692168      -0.53614863      -0.16369783      -0.02186009       0.06639718       0.05726877      -0.14692168      -0.53614863       0.00080394      -0.01392543      -0.05129526      -1.38382000       0.09164000       0.01100000      -0.22694000      -1.27026000      -0.01940000       0.02192000      -0.14334000      -0.08569000
S        0.08041383       4.47505795      11.18014708      -9.75298183      11.79512858     -10.88933564       6.76313003      -0.76049916      -0.72877393       0.07879029      -0.07692565      -0.12450318       6.76313003      -0.76049916      -0.72877393      -3.53061422      -5.85673888     -15.70130570       0.07170244      -0.11056594       0.01535408       0.07879029      -0.07692565      -0.12450318       0.07170244      -0.11056594       0.01535408       0.00032941       0.00844105      -0.65191006       0.48705000       0.00353000       0.00464000       0.04382000       0.57118000       0.00223000      -0.13962000       0.09847000       0.02126000
S        0.00159328       4.45546996       8.01101728       0.16231466      10.70035302       9.44174331       7.93437643       1.87673861       0.28179600      -0.04060226       0.06714891       0.08218984       7.93437643       1.87673861       0.28179600       1.50109983      -4.85605589      10.82271466      -0.09761872       0.03365894      -0.02069619      -0.04060226       0.06714891       0.08218984      -0.09761872       0.03365894      -0.02069619       0.00361934      -0.01395753       0.64463207       0.64481000       0.02411000       0.00040000       0.08730000       0.50883000      -0.00899000       0.01996000      -0.12523000       0.02957000
W       -3.16003872       6.31632855       9.60139297       8.58931566      -4.99728861      -5.10216831      -8.83102161       5.04149950       0.11515246      -0.15886181       0.07274942       0.26541872      -8.83102161       5.04149950       0.11515246      -4.63080685      18.01974709      -2.57682865      -0.09091231      -0.10710573       0.11725058      -0.15886181       0.07274942       0.26541872      -0.09091231      -0.10710573       0.11725058       0.00654269       0.00043734       0.00451928      -0.64173000      -0.25627000       0.00799000       0.04322000      -0.56618000       0.02200000      -0.02624000       0.03952000      -0.00556000
S       -1.57912900       7.17313888      11.19308077       3.22338937       8.23492235     -10.75485044       8.96087982       1.86167376       0.36590743      -0.15699506      -0.03610853       0.07603596       8.96087982       1.86167376       0.36590743       1.98501263      -2.04471940     -10.18047510       0.04927044      -0.01088551       0.06276828      -0.15699506      -0.03610853       0.07603596       0.04927044      -0.01088551       0.06276828       0.01059552      -0.01208462      -0.66444024       0.43664000      -0.02107000       0.00502000      -0.00250000       0.32129000       0.00113000       0.02861000       0.08083000       0.01702000
S       -1.58615818       7.25242804       7.97193504       2.13106715       3.46117615      16.24978821       5.74713539       2.45923646       0.14983532       0.16002749       0.05741072       0.01709436       5.74713539       2.45923646       0.14983532       1.93003492      -9.86523386      14.89117450       0.00982549       0.11609522       0.04676208       0.16002749       0.05741072       0.01709436       0.00982549       0.11609522       0.04676208      -0.01520848       0.01360702       0.69794013       0.27705000       0.04508000       0.00043000       0.07182000       0.35423000       0.00589000      -0.07659000       0.11606000       0.01315000
Mo       3.13070360       0.91201284       9.64272456     -17.80720078     -18.09058211     -14.05990951     -19.34467957      -5.14270451      -0.28912810      -0.46368394      -0.04891217      -0.31676106     -19.34467957      -5.14270451      -0.28912810      -1.80414527       4.21529958     -11.58517047       0.04251591      -0.44117326      -0.16878227      -0.46368394      -0.04891217      -0.31676106       0.04251591      -0.44117326      -0.16878227      -0.00777149      -0.01711254      -0.07491881      -1.16713000       0.05340000       0.00571000      -0.07797000      -1.46327000       0.00450000      -0.06404000       0.02186000      -0.08200000
S        4.68255938       1.77107251      11.19945390       1.62467563      12.12090157      -7.92992498       7.02385041       1.09166806       1.82952904       0.14481751       0.02407833       0.13304905       7.02385041       1.09166806       1.82952904       1.95593416      -6.52347787     -11.86655099       0.13364281      -0.09016837       0.02713789       0.14481751       0.02407833       0.13304905       0.13364281      -0.09016837       0.02713789       0.02071419       0.00075729      -0.67012313       0.49916000      -0.09213000      -0.00041000      -0.05039000       0.53127000      -0.00140000      -0.08446000       0.04819000       0.02047000
S        4.69333746       1.76001326       8.02385725      -0.77428187      13.36961237      11.59065976       7.69666111       0.06754337      -1.54755641      -0.05368325       0.05657767      -0.05676448       7.69666111       0.06754337      -1.54755641       0.72775454      -3.77157744      14.13198195      -0.04040039       0.07951525      -0.07754844      -0.05368325       0.05657767      -0.05676448      -0.04040039       0.07951525      -0.07754844      -0.02132035      -0.00750499       0.63855347       0.59969000       0.00285000      -0.00066000       0.04506000       0.56572000      -0.01029000       0.01018000      -0.18072000       0.02601000
Mo       1.55016877       3.55957738       9.58902161       9.95209734     -17.20090913      -2.28502150     -12.02966462       4.01097022       1.42006563      -0.05112718       0.10141611       0.29650398     -12.02966462       4.01097022       1.42006563      -7.14063656      22.65530248      -1.86135075      -0.06130097      -0.01555853       0.19761984      -0.05112718       0.10141611       0.29650398      -0.06130097      -0.01555853       0.19761984       0.00205860       0.01786453      -0.03559987      -1.22353000      -0.17941000      -0.01447000       0.27684000      -1.07424000       0.00171000      -0.08245000      -0.03879000      -0.06119000
S        3.11805108       4.49061587      11.17742913      -3.03692951       5.14247765     -13.62813068       6.99973149      -2.25252892       0.33918198      -0.10352857       0.05362466      -0.09056244       6.99973149      -2.25252892       0.33918198      -0.86986075      -5.56660846     -11.72107374       0.02712223      -0.11308370       0.05290991      -0.10352857       0.05362466      -0.09056244       0.02712223      -0.11308370       0.05290991      -0.00939562       0.00804333      -0.64761179       0.46252000      -0.02573000      -0.00413000      -0.01233000       0.53752000       0.00007000      -0.00591000      -0.04575000       0.01641000
S        3.08702896       4.48808536       7.99152302       2.24048988       4.88148230      12.83744614       7.32114092      -0.21154508      -0.72196161       0.19265715      -0.04128343       0.01874019       7.32114092      -0.21154508      -0.72196161       2.04871447      -4.25925085      10.77653992      -0.06347408       0.11935547      -0.00998404       0.19265715      -0.04128343       0.01874019      -0.06347408       0.11935547      -0.00998404      -0.00059544      -0.00829278       0.68221224       0.48473000      -0.02862000      -0.01084000      -0.00966000       0.44780000       0.01013000      -0.06101000       0.04105000       0.01331000
W        0.03167818       6.29449122       9.55181381      -3.95927502     -13.82137041       9.86773184     -10.55551458      -7.41089434       0.82545038       0.32616096      -0.01758332      -0.15875795     -10.55551458      -7.41089434       0.82545038       5.28195713      15.40849814       9.77670178       0.05203593       0.37997646       0.13531229       0.32616096      -0.01758332      -0.15875795       0.05203593       0.37997646       0.13531229      -0.00484184       0.00664212       0.05931050      -0.61081000      -0.06937000       0.02369000       0.00063000      -0.46048000       0.00317000       0.13837000      -0.08413000       0.02792000
S        1.58297162       7.21700097      11.21557415       2.75413765       8.87694099     -16.43984081       8.81892833       2.78722184      -0.97447515      -0.19320496      -0.07597871       0.00475093       8.81892833       2.78722184      -0.97447515       0.32901920      -3.18574013     -15.36684174      -0.13641949      -0.10672484       0.02596639      -0.19320496      -0.07597871       0.00475093      -0.13641949      -0.10672484       0.02596639      -0.00937420       0.00200643      -0.71233215       0.41091000       0.02412000      -0.00217000      -0.01769000       0.43908000      -0.00464000       0.07953000      -0.00307000       0.01040000
S        1.55907240       7.27145369       7.99424097       6.58356107       5.98212148      10.72641606       8.38940602       3.83367314       0.39247397       0.01846831       0.00129011       0.12907200       8.38940602       3.83367314       0.39247397       1.89611060     -10.23804549       8.04641816       0.09136421      -0.03650604       0.03080592       0.01846831       0.00129011       0.12907200       0.09136421      -0.03650604       0.03080592       0.00589556       0.00501034       0.66223054       0.50650000      -0.00929000       0.00871000      -0.06388000       0.54103000       0.00431000      -0.10169000       0.14315000       0.03280000
Mo       6.24228784       0.92682098       9.58770950       0.25046032     -21.52407612       6.25897769     -15.87642419       0.71522210       0.35919601       0.29424524       0.04129308       0.19754165     -15.87642419       0.71522210       0.35919601      -3.82186397      16.56691110       7.12785508      -0.05077525       0.26993330       0.06001750       0.29424524       0.04129308       0.19754165      -0.05077525       0.26993330       0.06001750      -0.01327125      -0.00423769       0.02440994      -1.16785000      -0.23901000       0.00343000       0.44279000      -1.53596000      -0.01091000       0.05237000       0.00997000      -0.06709000
S        7.83163258       1.87069944      11.16936900      -6.27757506       3.07598932     -13.11101825       5.51927391      -1.75976521      -0.61798396      -0.05295676      -0.03963324      -0.07901381       5.51927391      -1.75976521      -0.61798396      -2.78755002     -12.51641385     -10.99276577      -0.01456302      -0.10786352       0.02579117      -0.05295676      -0.03963324      -0.07901381      -0.01456302      -0.10786352       0.02579117      -0.00571612       0.00287469      -0.64178211       0.54841000       0.05498000       0.00108000       0.07350000       0.62857000      -0.00055000      -0.08675000      -0.15978000       0.02159000
S        7.82122939       1.83883381       8.03107388      -6.86955498       8.11918147       8.47147649       8.76604121      -1.88560208       1.69633487      -0.00770079       0.03636184      -0.09229921       8.76604121      -1.88560208       1.69633487      -3.01384322      -4.09770388      10.94690343       0.01722104       0.07844464       0.08269515      -0.00770079       0.03636184      -0.09229921       0.01722104       0.07844464       0.08269515       0.00496310       0.00628711       0.62390028       0.57691000       0.04167000      -0.00714000       0.04416000       0.71226000       0.00942000       0.01215000       0.08345000       0.03136000
W        4.69877336       3.58591338       9.60617281     -16.75807481     -15.99178671      -4.61790790      -5.79452556      -6.62715920      -0.17025626      -0.13330514      -0.00791429      -0.30332403      -5.79452556      -6.62715920      -0.17025626       2.67062333      23.85279410      -2.68954550       0.02285738      -0.10650634       0.23410927      -0.13330514      -0.00791429      -0.30332403       0.02285738      -0.10650634       0.23410927      -0.00051881       0.00942549       0.02059452      -0.42947000       0.11208000      -0.01276000      -0.16193000      -0.41269000      -0.02786000      -0.04139000      -0.05067000       0.02692000
S        6.24922330       4.51573348      11.19486150       3.26029816      10.94386010     -10.04721262       7.75799302       0.67739672      -0.76554863       0.12053296      -0.01232822       0.00749993       7.75799302       0.67739672      -0.76554863      -2.36558063      -7.15432024     -13.54838527      -0.21373030       0.00073512       0.04922394       0.12053296      -0.01232822       0.00749993      -0.21373030       0.00073512       0.04922394       0.00031311       0.00500253      -0.66268430       0.38915000       0.04417000       0.00183000      -0.03330000       0.46693000      -0.00248000       0.08372000       0.01885000       0.02055000
S        6.25597131       4.56568753       7.99967687       2.60917592       5.30684121      12.95925599       4.83747007       0.45494400       1.23356224       0.00384577      -0.00345306       0.04172016       4.83747007       0.45494400       1.23356224      -2.41174276     -15.81227196      12.98878684       0.17130850       0.08186950      -0.11194682       0.00384577      -0.00345306       0.04172016       0.17130850       0.08186950      -0.11194682      -0.00069347       0.00802711       0.67197465       0.36320000       0.01890000       0.01207000      -0.03811000       0.44167000      -0.00460000      -0.00860000       0.10483000       0.00731000
Mo       3.12133136       6.34435155       9.57374486      -1.16129369     -19.85469590       2.72974223     -26.82645685       2.39981393      -0.01687999       0.01943729      -0.03550282      -0.08076478     -26.82645685       2.39981393      -0.01687999       2.02862073      -4.68813032       3.18785440       0.05018100       0.07253650      -0.49019468       0.01943729      -0.03550282      -0.08076478       0.05018100       0.07253650      -0.49019468       0.00376205      -0.02268263      -0.03957939      -1.22256000       0.27437000      -0.01877000      -0.08089000      -1.13755000       0.00992000       0.02322000      -0.00436000      -0.07380000
S        4.69718008       7.20425472      11.16102771     -10.78572667      11.43749132     -10.79734734       9.45576342      -5.30157816      -0.62413797      -0.00573033       0.06009056      -0.17488881       9.45576342      -5.30157816      -0.62413797      -4.43362917      -2.35981884     -11.74354408       0.07170273       0.03512647       0.09432808      -0.00573033       0.06009056      -0.17488881       0.07170273       0.03512647       0.09432808      -0.00549321       0.00653055      -0.62926227       0.57744000       0.03319000      -0.00463000       0.02054000       0.52031000      -0.00162000      -0.19047000      -0.00483000       0.02509000
S        4.69052578       7.22627949       7.99236652      -8.71350621       8.04117741      12.48125703       8.62758034      -4.69357443      -1.50588026       0.02357728      -0.06621629      -0.13058856       8.62758034      -4.69357443      -1.50588026      -2.76451657      -6.14710711      11.77088697      -0.07479494      -0.05696487       0.05873107       0.02357728      -0.06621629      -0.13058856      -0.07479494      -0.05696487       0.05873107       0.01165427      -0.00023555       0.66470093       0.57731000      -0.00839000      -0.00998000      -0.01335000       0.43512000      -0.00203000       0.12102000      -0.02498000       0.02165000
27
Lattice="9.381253549691582 0.0 0.0 -4.690626774845791 8.12416557403291 0.0 -0.0 0.0 19.251270409322093" Properties=species:S:1:pos:R:3:raman_tensor:R:27:born_effective_charge:R:9 susceptibility_tensor="_JSON [[-475.8912609007764, -0.550068581286518, 0.003188212469335493], [-0.5500704494253708, -473.14557923429845, -0.007493571972531749], [-0.005645749129943911, -0.011147067774845412, -31.57249083653985]]" pbc="T T T"
W        0.01275850       0.93671817       9.65659334      -6.45469511     -23.21678969      -6.89644488     -22.81904724      -0.92436458       0.00328300      -0.24057053       0.01484031      -0.00728043     -22.81904724      -0.92436458       0.00328300      -2.07476876      -0.24929329      -6.68240221      -0.03978316      -0.25171088      -0.29347094      -0.24057053       0.01484031      -0.00728043      -0.03978316      -0.25171088      -0.29347094      -0.00802519      -0.01407088      -0.01440284      -0.78413000       0.06329000       0.02305000       0.06143000      -0.61645000       0.01716000       0.10710000      -0.06597000      -0.04804000
S        1.62933612       1.78825455      11.20731455      -6.64075206       9.26978083      -8.66490673       8.16784483      -1.49110732      -0.61487428       0.00107283       0.02724131      -0.05558516       8.16784483      -1.49110732      -0.61487428      -3.70446545      -6.09480632      -9.48004651       0.10877389       0.00587428       0.02922117       0.00107283       0.02724131      -0.05558516       0.10877389       0.00587428       0.02922117       0.01499709      -0.00665747      -0.62335762       0.38147000      -0.07932000       0.00176000      -0.05493000       0.36874000       0.00511000      -0.19494000       0.04289000       0.02304000
S        1.54940784       1.78909886       8.00183403       3.23574223       6.83462843      14.04946471       7.14375129       1.25273390      -0.48204821       0.05654477       0.00271297       0.01341374       7.14375129       1.25273390      -0.48204821       1.49645182      -8.17816937      12.39581250      -0.06168654       0.05082743       0.00219434       0.05654477       0.00271297       0.01341374      -0.06168654       0.05082743       0.00219434      -0.01999861       0.00316614       0.67865715       0.36907000       0.03390000       0.00621000       0.02566000       0.36395000       0.00143000       0.00435000      -0.00631000       0.02362000
W       -1.55944578       3.59592830       9.62723002     -18.06974851      -8.95316364      -3.20130982      -9.78747529      -4.72643171      -0.16649095      -0.10038498      -0.00190360      -0.11280072      -9.78747529      -4.72643171      -0.16649095     -11.87267318      24.53396271      -3.67685522       0.00666475      -0.08586269       0.13822914      -0.10038498      -0.00190360      -0.11280072       0.00666475      -0.08586269       0.13822914      -0.01327499       0.01093476      -0.00902179      -0.59905000       0.06708000      -0.01167000      -0.05468000      -0.70859000      -0.01413000      -0.01406000       0.02006000      -0.04371000
S       -0.02232738       4.50487795      11.20187343       4.02116735       7.11934109      -9.49475722       6.01298428       1.77010359       0.73950650       0.03106279      -0.04846232       0.04791819       6.01298428       1.77010359       0.73950650       3.47919220     -10.11374426     -10.29666859      -0.01900377      -0.10777179       0.01623816       0.03106279      -0.04846232       0.04791819      -0.01900377      -0.10777179       0.01623816      -0.00155472       0.00653790      -0.62399494       0.35319000      -0.00134000       0.00262000       0.01938000       0.42373000      -0.00630000       0.09255000      -0.11421000       0.02556000
S       -0.04155895       4.51078814       7.96243276       5.41693313       6.07505732      15.63078046       4.68107803       2.07678287       0.13451596       0.06834989       0.01888156       0.10451436       4.68107803       2.07678287       0.13451596       3.68573743      -8.13308544      17.34937539       0.00154631       0.18622099      -0.03103035       0.06834989       0.01888156       0.10451436       0.00154631       0.18622099      -0.03103035      -0.00232938      -0.00475889       0.72056249       0.27528000       0.00702000       0.00239000       0.02208000       0.26695000      -0.00276000      -0.09403000       0.08650000       0.01189000
W       -3.13286962       6.33534815       9.66165922       4.97616338     -24.80816713     -11.19219773     -20.51341018       0.63805104       0.43692045      -0.41104745       0.01288422       0.02988595     -20.51341018       0.63805104       0.43692045       1.72233236      -1.52092129     -11.12897345       0.03632635      -0.44447916      -0.08845320      -0.41104745       0.01288422       0.02988595       0.03632635      -0.44447916      -0.08845320       0.00723920      -0.01527853      -0.04584319      -0.68787000      -0.02872000       0.00030000      -0.15763000      -0.72486000      -0.00047000       0.03275000       0.03752000      -0.05263000
S       -1.54771921       7.18013003      11.24249425      -2.63840506      10.20489319     -12.55098872       8.75376910      -0.89054267       0.20773958      -0.00019543       0.05524374       0.00746364       8.75376910      -0.89054267       0.20773958      -0.63542985      -1.47986512     -12.61351192       0.01548136      -0.03099196       0.08282103      -0.00019543       0.05524374       0.00746364       0.01548136      -0.03099196       0.08282103       0.01251976       0.01615376      -0.67155940       0.23373000      -0.04604000      -0.00109000      -0.05203000       0.29645000       0.00475000      -0.06418000       0.10320000       0.02407000
S       -1.57933404       7.18754122       8.02650672       0.08857492      10.07363163      11.40068987       8.14947330      -0.75991922       0.11587334       0.04835356      -0.03198714       0.01962980       8.14947330      -0.75991922       0.11587334       0.35170162      -3.06368916      11.88049094       0.00371850      -0.02288146      -0.04215352       0.04835356      -0.03198714       0.01962980       0.00371850      -0.02288146      -0.04215352      -0.00273248      -0.01923640       0.64161067       0.41218000       0.01099000      -0.00116000       0.00657000       0.36917000       0.00198000       0.05288000      -0.13034000       0.02206000
W        3.12330074       0.87273802       9.60555932       7.44680930     -13.12258684       2.51744814     -12.41007856       2.55851950       0.63412860       0.23967476      -0.00317431      -0.01358478     -12.41007856       2.55851950       0.63412860       2.06926412      25.00901700       4.06860974       0.03679080       0.27007830       0.17947547       0.23967476      -0.00317431      -0.01358478       0.03679080       0.27007830       0.17947547       0.00280137       0.01225072       0.01999780      -0.63429000       0.01834000      -0.00934000       0.09018000      -0.76303000       0.03365000      -0.04160000       0.01225000      -0.04317000
S        4.68687427       1.78431443      11.19727661      -0.96685759       9.33869195      -9.52615248       8.23759578      -0.46460426      -0.45462750       0.06841219       0.00937243      -0.00869222       8.23759578      -0.46460426      -0.45462750      -1.32919610      -4.60459347     -10.35927395      -0.01828874      -0.00096355       0.02557410       0.06841219       0.00937243      -0.00869222      -0.01828874      -0.00096355       0.02557410      -0.00758038      -0.00387154      -0.60215297       0.38503000       0.02624000      -0.00062000       0.02776000       0.33459000       0.00103000       0.01400000      -0.01347000       0.02295000
S        4.69541121       1.79144418       8.06684611      -1.12763750       8.58038035       4.10151910       7.46978515      -0.87576650       0.32754646      -0.05286667      -0.01945196      -0.03790102       7.46978515      -0.87576650       0.32754646      -0.81827756      -6.49738370       6.24747421       0.00239957       0.01129481       0.00632718      -0.05286667      -0.01945196      -0.03790102       0.00239957       0.01129481       0.00632718       0.00552562       0.00366095       0.59875441       0.43564000      -0.03243000      -0.00141000      -0.01351000       0.43778000       0.00491000       0.02128000       0.00777000       0.02880000
W        1.56657553       3.59789836       9.61531583      10.52816993     -13.26330868      -1.74199112     -10.48388234       1.12128404       0.51436628      -0.17255505      -0.00953426       0.11756002     -10.48388234       1.12128404       0.51436628       6.20026629      25.10076211      -1.58741579       0.06518972      -0.15638921       0.13625208      -0.17255505      -0.00953426       0.11756002       0.06518972      -0.15638921       0.13625208       0.00814601       0.00856313      -0.04356215      -0.68955000      -0.12930000       0.01712000       0.09886000      -0.69594000      -0.03326000       0.02862000      -0.00540000      -0.03869000
S        3.15923095       4.52523527      11.19952811      -3.62963736       8.47955292      -9.37172112       7.87325858       0.56418366      -1.40843051      -0.00281123       0.00131114      -0.07399986       7.87325858       0.56418366      -1.40843051      -1.89358557      -7.71347067      -7.90212492      -0.01649878       0.04900493      -0.00655471      -0.00281123       0.00131114      -0.07399986      -0.01649878       0.04900493      -0.00655471       0.00476303       0.00084869      -0.62155181       0.33564000      -0.01407000       0.00380000      -0.01648000       0.35933000      -0.01218000      -0.01559000      -0.02191000       0.02446000
S        3.13493350       4.52007559       8.00192784       0.75606090       8.08861003      12.23355234       7.50736150       1.16728471      -0.12858775       0.04968903       0.00441583      -0.05271009       7.50736150       1.16728471      -0.12858775       1.00953972      -5.56899441      12.37397665       0.01738309       0.03794349       0.06938759       0.04968903       0.00441583      -0.05271009       0.01738309       0.03794349       0.06938759      -0.00573175       0.01025013       0.67276136       0.34079000      -0.01265000      -0.00005000      -0.02139000       0.33584000      -0.00928000      -0.05167000       0.00329000       0.02176000
W        0.01069463       6.32024433       9.61569108     -12.88960304     -16.40198242       1.01576214     -13.92965490      -2.87349957       0.20652544       0.11444019       0.03881242      -0.15233887     -13.92965490      -2.87349957       0.20652544      -5.09294574      -0.03436735       0.41837074      -0.01912884       0.03713573      -0.21605745       0.11444019       0.03881242      -0.15233887      -0.01912884       0.03713573      -0.21605745      -0.01283353      -0.00838767       0.03256183      -0.77276000       0.04516000      -0.01878000       0.05956000      -0.78153000       0.00156000      -0.05743000      -0.02692000      -0.04748000
S        1.54593677       7.23069499      11.25103119       4.24157833       5.98389944     -14.42243992       7.12985003       0.44711781       0.89901878      -0.02735932      -0.00512169       0.06279646       7.12985003       0.44711781       0.89901878       2.24817299      -8.99706697     -14.06542897       0.03185155      -0.05003679      -0.00234180      -0.02735932      -0.00512169       0.06279646       0.03185155      -0.05003679      -0.00234180      -0.00286481       0.00564249      -0.68762753       0.27007000       0.03317000      -0.00468000      -0.00367000       0.28895000       0.00624000       0.03289000      -0.01014000       0.02464000
S        1.56948372       7.19157516       8.01459253       0.21539514       9.92590013      12.39609347       8.86818926      -0.21460757      -1.39069357       0.00469813      -0.01264311       0.02322816       8.86818926      -0.21460757      -1.39069357       1.31788933      -1.00470122      12.73930272      -0.02493648       0.04011953       0.04896090       0.00469813      -0.01264311       0.02322816      -0.02493648       0.04011953       0.04896090       0.00547317      -0.00539742       0.65493835       0.35225000      -0.00509000      -0.00130000      -0.03254000       0.37451000       0.00513000       0.01845000      -0.06809000       0.01505000
W        6.25635799       0.89084384       9.63182683      -0.21639873     -10.52109762      -2.76972545     -10.35503790       1.31256633      -0.74279967      -0.08661397       0.00132391       0.20805447     -10.35503790       1.31256633      -0.74279967       0.02720928      22.39175351      -2.61897968       0.02717080      -0.09607449       0.12181259      -0.08661397       0.00132391       0.20805447       0.02717080      -0.09607449       0.12181259       0.00791450       0.00667483      -0.01566741      -0.65825000      -0.02359000      -0.01188000      -0.12112000      -0.72448000       0.03646000      -0.05361000      -0.01188000      -0.04772000
S        7.78062407       1.80983143      11.24521482       7.09976353       8.24646655     -11.43043175       7.66786632       1.66674063       0.08796700       0.01090776      -0.03506411       0.03661013       7.66786632       1.66674063       0.08796700       3.21063298      -6.12529787     -12.39117669      -0.09746763      -0.01507436       0.01307123       0.01090776      -0.03506411       0.03661013      -0.09746763      -0.01507436       0.01307123      -0.01045529      -0.00218122      -0.66938466       0.27159000       0.04502000      -0.00167000       0.04411000       0.29305000       0.00422000       0.16439000       0.05508000       0.02274000
S        7.84150840       1.81170769       8.00089590      -2.54235375       6.15747207      15.83747895       6.21962829      -1.38542946       0.76622529       0.08678469      -0.00526539       0.01060605       6.21962829      -1.38542946       0.76622529      -1.59748263      -7.72230491      15.14582065       0.05580052       0.09515131      -0.02064246       0.08678469      -0.00526539       0.01060605       0.05580052       0.09515131      -0.02064246       0.01513967       0.00390360       0.68013517       0.29326000      -0.04090000      -0.00517000      -0.02872000       0.32515000      -0.00069000       0.00342000      -0.00829000       0.01479000
W        4.68068265       3.63532956       9.61981883       5.07816176     -23.03069827      -3.08673260     -19.90414052       1.93408370       0.20665605      -0.05162249       0.04644208       0.02548724     -19.90414052       1.93408370       0.20665605       3.26402138      -0.42445855      -1.95883119      -0.03292917      -0.01159197      -0.27773024      -0.05162249       0.04644208       0.02548724      -0.03292917      -0.01159197      -0.27773024       0.00384748      -0.01744075      -0.03453286      -0.73597000       0.01377000      -0.00588000      -0.02676000      -0.56003000      -0.01596000      -0.03024000       0.08015000      -0.03880000
S        6.23196673       4.48780407      11.17663785       1.75992112      10.19641208      -5.53418573       9.07315071      -1.03490199       0.80769179       0.07489184       0.01824716       0.04442189       9.07315071      -1.03490199       0.80769179       0.08016704      -3.82610129      -5.53261413       0.02852378       0.16121776       0.03461521       0.07489184       0.01824716       0.04442189       0.02852378       0.16121776       0.03461521      -0.00391926      -0.00705862      -0.57533093       0.42867000       0.02713000      -0.00535000       0.03825000       0.37152000      -0.00575000      -0.02607000       0.04752000       0.03052000
S        6.24463143       4.50806758       8.02519335      -1.47548066       8.31787161      11.75109156       7.83936603      -1.29084523      -0.36618498       0.04917794      -0.02472966       0.05377952       7.83936603      -1.29084523      -0.36618498      -0.53878622      -4.08515196      11.73284435      -0.05706865       0.07099397       0.08860265       0.04917794      -0.02472966       0.05377952      -0.05706865       0.07099397       0.08860265       0.01372248       0.01066813       0.64742483       0.32965000      -0.00698000      -0.00341000       0.00315000       0.36140000      -0.00505000       0.09041000      -0.04740000       0.02145000
W        3.13530875       6.33713059       9.62591664      -4.83436702     -17.51034436       0.83595276     -17.06904788      -1.94092432       0.34762532       0.08364353      -0.00689535      -0.05533320     -17.06904788      -1.94092432       0.34762532      -3.29679521       6.65452394      -0.87991659       0.01311411       0.05400700      -0.06529036       0.08364353      -0.00689535      -0.05533320       0.01311411       0.05400700      -0.06529036      -0.00977802      -0.00716521       0.05206049      -0.72705000       0.02013000       0.01809000       0.09144000      -0.83784000      -0.02204000       0.05116000      -0.01349000      -0.04728000
S        4.69456690       7.23801236      11.18639436       0.17106507       9.08269623      -3.17402256       8.80361064       0.49175374      -0.48627271       0.10409471      -0.02180593      -0.05525868       8.80361064       0.49175374      -0.48627271      -0.24170376      -5.64532239      -5.96539590      -0.03882585       0.08618563       0.06717106       0.10409471      -0.02180593      -0.05525868      -0.03882585       0.08618563       0.06717106      -0.00978976       0.00186137      -0.58861451       0.44076000       0.03059000       0.00426000       0.02209000       0.42136000       0.00029000       0.03836000       0.00464000       0.03419000
S        4.66004389       7.23191455       8.03316741       6.45078134       8.99506029      11.95068670       8.14024540       1.97804914      -0.44282072       0.04625467      -0.02890496       0.11205659       8.14024540       1.97804914      -0.44282072       2.80106967      -3.50716052      13.19265672      -0.02702507       0.10721563       0.13495934       0.04625467      -0.02890496       0.11205659      -0.02702507       0.10721563       0.13495934       0.00637641       0.00691843       0.63804167       0.38063000      -0.02141000       0.00386000      -0.02706000       0.42028000       0.00396000      -0.10918000       0.04294000       0.01591000
27
Lattice="10.029532672329253 0.0 0.0 -5.014766336164627 8.685575294237134 0.0 0.0 0.0 20.033991512977682" Properties=species:S:1:pos:R:3:raman_tensor:R:27:born_effective_charge:R:9 susceptibility_tensor="_JSON [[-683.9268020342536, -1.3550475918136655, -0.04720111910334335], [-1.35506772928386, -680.6157923797786, -0.04339444284103683], [-0.047179592842100826, -0.043445272593390136, -37.63073500808296]]" pbc="T T T"
Mo       0.03640720       0.97075847       9.99021690     -10.05299624     -10.32304200     -10.48790327     -22.70957540      -4.55592010      -2.21511956      -0.28037351      -0.22532793      -0.34683194     -22.70957540      -4.55592010      -2.21511956       7.82414640      11.56098504     -13.71096069       0.03024326      -0.43080003      -0.21879294      -0.28037351      -0.22532793      -0.34683194       0.03024326      -0.43080003      -0.21879294      -0.01298479      -0.00868948      -0.11145424      -1.54126000       0.18010000      -0.03550000       0.12222000      -1.75597000      -0.01532000       0.07818000      -0.10208000      -0.09354000
S        1.66229475       1.95595946      11.48371461      -2.71497342      17.33998681      12.32316484      15.32262234      -4.66835537       2.82291548       0.13662764       0.03317014      -0.05332429      15.32262234      -4.66835537       2.82291548       0.80075890      -2.35125332       6.56457471      -0.00043073       0.30645384       0.15696302       0.13662764       0.03317014      -0.05332429      -0.00043073       0.30645384       0.15696302      -0.00066607      -0.01478171      -0.46155261       0.65087000       0.08051000       0.00958000       0.04951000       0.52816000      -0.03016000       0.09025000       0.03319000       0.03881000
Se       1.67743934       1.93218947       8.26614024      -0.61546655       7.66241212      14.49539111       7.26070703      -1.28249768      -1.12823490       0.17613224      -0.06784412       0.08027633       7.26070703      -1.28249768      -1.12823490       4.09147904      -6.99602345      11.79353063       0.01468692       0.23320789       0.24299274       0.17613224      -0.06784412       0.08027633       0.01468692       0.23320789       0.24299274       0.00641363       0.06291504       0.90549082       0.64442000       0.08566000      -0.00966000      -0.05110000       0.54709000      -0.01555000       0.04276000       0.10886000       0.04408000
Mo      -1.67162221       3.87310463      10.01739694     -20.17101959     -17.14791912       2.87825071     -10.18066415       2.10628485      -2.00012420       0.07314226      -0.01756393       0.10997781     -10.18066415       2.10628485      -2.00012420     -13.25387385      29.40221693       6.29797552      -0.07658290       0.21958538       0.03436221       0.07314226      -0.01756393       0.10997781      -0.07658290       0.21958538       0.03436221      -0.01356754      -0.00473670      -0.08073849      -1.63287000       0.10089000       0.00618000       0.02437000      -2.03775000      -0.03231000       0.13700000       0.00917000      -0.10311000
S        0.05225387       4.84416399      11.44730741       1.39792944      14.63429166      19.11582229      10.95291449       0.89477549      -0.56160310       0.20826837      -0.14144565      -0.11975825      10.95291449       0.89477549      -0.56160310       2.13528453     -13.69078171      11.05751948      -0.04156780       0.05350463       0.00860574       0.20826837      -0.14144565      -0.11975825      -0.04156780       0.05350463       0.00860574      -0.00854062       0.01331991      -0.43692455       0.65453000       0.08442000      -0.01401000       0.01340000       0.61424000       0.01384000       0.00323000      -0.09294000       0.04665000
Se      -0.01574637       4.84366251       8.30084242       0.85473832      13.40202532      10.32369410       7.95955742      -0.82463103       1.67504644       0.16283662       0.11088099      -0.00309395       7.95955742      -0.82463103       1.67504644      -0.97155324      -0.56323155      12.44675654      -0.05128980       0.29390687       0.06426526       0.16283662       0.11088099      -0.00309395      -0.05128980       0.29390687       0.06426526       0.04504701      -0.03242303       0.88412027       0.58705000       0.03849000      -0.01890000       0.02837000       0.71267000      -0.00341000      -0.10364000       0.01272000       0.05325000
W       -3.33903202       6.73954507      10.05841773       1.76932837     -31.09548625       5.37702715     -10.73066202      -0.63637707      -0.38117321       0.10769867       0.26479346      -0.01321773     -10.73066202      -0.63637707      -0.38117321       0.58036668       0.32021050       4.16635116      -0.03182972       0.04047030       0.01558208       0.10769867       0.26479346      -0.01321773      -0.03182972       0.04047030       0.01558208      -0.00344089      -0.00301576       0.14306068      -0.95455000      -0.09305000       0.00412000       0.19793000      -0.83665000       0.06901000      -0.12717000       0.06330000       0.05235000
Se      -1.66339799       7.76606774      11.69062387       7.36718775       9.50912894      -7.98239449      11.29406776       1.73503045       0.59243254      -0.20312710       0.10549981       0.07190176      11.29406776       1.73503045       0.59243254       3.64538772      -7.55977934      -4.52941884      -0.14786173      -0.11408724       0.10173893      -0.20312710       0.10549981       0.07190176      -0.14786173      -0.11408724       0.10173893      -0.01695004      -0.00164878      -0.85391988       0.54055000       0.13313000       0.01460000       0.07783000       0.46231000       0.01239000       0.12468000       0.04621000       0.06443000
S       -1.67041867       7.71010295       8.55017660       2.52498213      19.22680839     -12.00606499      15.90795771       0.75448551      -0.57485642      -0.18484954      -0.09102290      -0.01253093      15.90795771       0.75448551      -0.57485642       0.92771781      -3.41043163      -7.37765967       0.08116095      -0.22309165       0.04808086      -0.18484954      -0.09102290      -0.01253093       0.08116095      -0.22309165       0.04808086       0.00914941       0.02680558       0.45254232       0.28427000      -0.03402000       0.00878000      -0.06086000       0.40611000       0.01561000       0.01536000       0.01588000       0.01336000
W        3.33421784       1.01709491      10.03354449     -14.89401055     -10.65565361      -6.46574618     -27.21397745       1.06712006       2.08716069      -0.14509138       0.11680912       0.15564168     -27.21397745       1.06712006       2.08716069     -23.92686030      14.59025963      -8.52317013      -0.02455657      -0.05988395      -0.12383155      -0.14509138       0.11680912       0.15564168      -0.02455657      -0.05988395      -0.12383155       0.00414548      -0.01846964      -0.10853082      -0.79955000      -0.15038000       0.00995000      -0.14284000      -0.65229000      -0.06314000      -0.11948000      -0.08233000       0.05927000
Se       5.04946852       1.90791800      11.68811649      -5.84356751       7.50883981     -10.94796133       6.49554624       2.29025774       0.45393971      -0.30492848      -0.12581525       0.12501458       6.49554624       2.29025774       0.45393971       1.10137478      -8.29313659      -8.51181391       0.18882814      -0.14396875       0.06986364      -0.30492848      -0.12581525       0.12501458       0.18882814      -0.14396875       0.06986364       0.01850557      -0.00594967      -0.83573460       0.84554000      -0.01052000      -0.00597000      -0.00257000       0.82137000      -0.02687000      -0.19608000      -0.01350000       0.07736000
Se       4.98979280       1.92697411       8.38769817      13.76203303       6.17429488       3.91697083       6.05619814       4.81914498       0.79914464       0.34975014       0.20094931       0.19763882       6.05619814       4.81914498       0.79914464       5.04249561     -11.18247635       2.41442251      -0.07555215       0.30740564       0.22301808       0.34975014       0.20094931       0.19763882      -0.07555215       0.30740564       0.22301808      -0.02732621       0.03162980       0.78112514       0.96763000      -0.04940000       0.01577000       0.04893000       0.67796000      -0.01742000      -0.04217000       0.09376000       0.06310000
Mo       1.66028884       3.87541142       9.96093067      18.68216911     -52.85794021      -4.97590058     -22.98054352       9.26942963       0.30140061      -0.05221915       0.14865414       0.50494795     -22.98054352       9.26942963       0.30140061      -1.45590485      -8.57884048      -4.86730398       0.01709070      -0.19244662      -0.02260189      -0.05221915       0.14865414       0.50494795       0.01709070      -0.19244662      -0.02260189       0.01785180      -0.02800307       0.22945774      -1.47110000      -0.00820000      -0.02010000      -0.32489000      -1.35569000       0.00360000      -0.08493000       0.03808000      -0.08004000
Se       3.27825305       4.78870067      11.72993964      -8.58611105       4.92598407     -19.00884716       4.41800624      -4.14329373      -1.17672771      -0.49171134       0.16129178      -0.03335175       4.41800624      -4.14329373      -1.17672771      -1.81050178      -1.98078376     -13.32525064      -0.08002783      -0.45905178      -0.03730806      -0.49171134       0.16129178      -0.03335175      -0.08002783      -0.45905178      -0.03730806       0.04078904       0.01887474      -0.97491756       0.76175000      -0.01275000      -0.00587000      -0.00192000       0.71322000       0.02224000      -0.12309000       0.13430000       0.07917000
Se       3.36049522       4.82089547       8.35720839      -1.66247373       7.39715158      12.48052030       4.46050692      -4.21778854       1.76122531       0.19107015      -0.11642768       0.01628997       4.46050692      -4.21778854       1.76122531      -5.45375437      -3.02053149      16.89376261       0.14770426       0.22245818       0.08100207       0.19107015      -0.11642768       0.01628997       0.14770426       0.22245818       0.08100207      -0.01711174      -0.01600383       0.75272575       0.89719000       0.02922000       0.00339000       0.09840000       1.07913000       0.01339000       0.13367000       0.01028000       0.05507000
W        0.04904441       6.80212935      10.00155028     -33.96193838     -30.08243255       4.30504867     -35.01308010     -16.58922255       1.98173118       0.14719983      -0.18223119      -0.17356792     -35.01308010     -16.58922255       1.98173118     -10.36744986      -7.50836540       1.40650898       0.20459834      -0.14171534      -0.45029269       0.14719983      -0.18223119      -0.17356792       0.20459834      -0.14171534      -0.45029269      -0.04712827      -0.02416712       0.02660879      -0.50174000       0.12843000       0.02533000       0.02828000      -0.43357000       0.06333000       0.04406000      -0.04217000       0.09568000
S        1.65015901       7.71551889      11.60928436      -1.30718617       4.74552945      -6.78563264       7.83094332      -1.03965175      -2.68863165       0.19117471      -0.10391683       0.02433006       7.83094332      -1.03965175      -2.68863165      -4.69208958     -21.14468255      -6.48111723      -0.03197183       0.08515894       0.04819249       0.19117471      -0.10391683       0.02433006      -0.03197183       0.08515894       0.04819249       0.00360556       0.01752018      -0.58669482       0.43947000      -0.00376000      -0.00113000       0.10677000       0.43950000       0.00348000      -0.04208000      -0.19964000       0.02247000
S        1.65607643       7.62675753       8.40504927      -2.83184401      15.55715587       7.76961852      13.36558645       2.34779592       0.85689803      -0.03093093       0.05931663       0.12076453      13.36558645       2.34779592       0.85689803       0.40043567       0.86723457       7.54397447       0.00187398      -0.11442685      -0.00742658      -0.03093093       0.05931663       0.12076453       0.00187398      -0.11442685      -0.00742658       0.01647968      -0.02144848       0.61365490       0.40052000       0.06528000       0.01708000       0.06959000       0.48364000       0.01775000       0.12819000      -0.08488000       0.02577000
Mo       6.69120272       0.85682298       9.98971543       4.79101672      -6.99395710       4.12715261       4.11302496      -7.52043025      -0.87884255       0.11908771       0.17117535      -0.16780464       4.11302496      -7.52043025      -0.87884255       7.19444829      61.55906335       3.48028286      -0.12131448       0.10913784       0.56765352       0.11908771       0.17117535      -0.16780464      -0.12131448       0.10913784       0.56765352      -0.00526853       0.06130024      -0.05986533      -2.05813000      -0.02017000       0.02730000       0.00846000      -1.60711000      -0.02476000       0.09964000      -0.08020000      -0.10309000
Se       8.37315535       1.85957565      11.64719600      10.55974576      10.15902577      -6.67412862      10.23101766       1.90040194      -0.35032963      -0.29965384       0.09074835      -0.01919668      10.23101766       1.90040194      -0.35032963       0.60399268      -3.23466400      -4.34053852      -0.14763889      -0.21972398      -0.06412431      -0.29965384       0.09074835      -0.01919668      -0.14763889      -0.21972398      -0.06412431      -0.02463888      -0.02536316      -0.80249539       0.85680000      -0.05130000      -0.00265000      -0.09755000       0.85609000      -0.00660000       0.05227000       0.20040000       0.07100000
Se       8.35259481       1.94512757       8.36844147       0.99778174       3.62741913       4.74893121       5.14308308      -0.98280060      -1.78943248       0.21145992      -0.20969969       0.03514644       5.14308308      -0.98280060      -1.78943248      -2.54721104     -20.45571865      -0.43052451       0.10076583       0.24348373      -0.03536655       0.21145992      -0.20969969       0.03514644       0.10076583       0.24348373      -0.03536655       0.02758295       0.01488486       0.79334605       0.95486000      -0.01690000      -0.00600000      -0.00649000       0.92182000      -0.00562000      -0.03359000       0.20126000       0.08260000
Mo       5.05909687       3.89145868      10.04287195      -6.80908108     -12.77773071       6.77476586     -17.03224814      -7.14508444      -2.30495748       0.19906265      -0.22233163      -0.84576257     -17.03224814      -7.14508444      -2.30495748       9.35204072       9.82606637       6.26888786       0.05023517       0.15923281      -0.31549419       0.19906265      -0.22233163      -0.84576257       0.05023517       0.15923281      -0.31549419      -0.01600605      -0.02103874       0.21623233      -1.83224000       0.01728000       0.02076000       0.21097000      -2.01519000      -0.01026000      -0.03041000       0.06544000      -0.10673000
Se       6.66632948       4.85820533      11.75150314      16.18347721       6.39303696      -9.96168477       5.63743325       3.88032310       2.49856549      -0.13802135       0.06435875       0.15766671       5.63743325       3.88032310       2.49856549       5.12933332     -15.18017411     -11.16043569       0.12851655      -0.27449220      -0.14488459      -0.13802135       0.06435875       0.15766671       0.12851655      -0.27449220      -0.14488459      -0.01918949       0.01793886      -0.92992968       0.64685000      -0.07828000       0.01042000       0.01712000       0.80964000      -0.00136000       0.08451000      -0.15177000       0.07658000
S        6.73142115       4.83252973       8.52801134      -7.80093014      16.59954727      -8.55322985      12.32752808       0.86079690      -0.89440412      -0.30461487      -0.06238686      -0.06725125      12.32752808       0.86079690      -0.89440412      -1.53903328     -10.02381728      -4.39796505      -0.07438781      -0.08784023      -0.02865260      -0.30461487      -0.06238686      -0.06725125      -0.07438781      -0.08784023      -0.02865260      -0.00766265      -0.01608340       0.46701327       0.58147000      -0.11207000       0.01876000      -0.15481000       0.64695000      -0.01726000       0.18345000      -0.02903000       0.02078000
Mo       3.24425293       6.71908482      10.04618170      50.39977785      -7.72264708      -4.00488391     -20.04729376      21.47617573      -0.15355220      -0.01427171       0.00712836       0.69523069     -20.04729376      21.47617573      -0.15355220      14.85163089      16.55158450      -8.69778476      -0.11135163       0.02573501      -0.15047116      -0.01427171       0.00712836       0.69523069      -0.11135163       0.02573501      -0.15047116       0.06075509       0.00946576      -0.12355753      -1.38978000      -0.16892000      -0.01891000      -0.12567000      -1.69648000       0.05355000      -0.04209000       0.06022000      -0.08363000
Se       5.02920886       7.77519461      11.66404561     -13.64488486       2.38238019      -5.94054111       6.51948903      -2.05187913       0.25687583      -0.14841867      -0.06797150      -0.28682918       6.51948903      -2.05187913       0.25687583      -0.47675591     -12.11080151      -5.15541041       0.18690960      -0.14605949      -0.04219779      -0.14841867      -0.06797150      -0.28682918       0.18690960      -0.14605949      -0.04219779       0.00812269      -0.01830373      -0.77543287       0.76880000      -0.15386000      -0.00696000      -0.16541000       0.82491000       0.00782000      -0.08223000      -0.10483000       0.06846000
Se       4.96863049       7.60459226       8.36583379       1.26535781      12.86515422       6.30353648      11.40548425       2.45505980       1.18641742       0.34410619       0.10063226      -0.11212473      11.40548425       2.45505980       1.18641742       2.60065990       9.45924603      11.98481222      -0.13978976       0.34079806       0.01901264       0.34410619       0.10063226      -0.11212473      -0.13978976       0.34079806       0.01901264      -0.02717728      -0.00232715       0.83698053       0.65780000       0.01900000      -0.02404000       0.04571000       0.84101000       0.01884000      -0.19097000      -0.16344000       0.06165000
27
Lattice="9.929295925522924 0.0 0.0 -4.964647962761462 8.598770271502852 0.0 -0.0 0.0 19.99760199400317" Properties=species:S:1:pos:R:3:raman_tensor:R:27:born_effective_charge:R:9 susceptibility_tensor="_JSON [[-739.0058335151723, 3.0426401657940008, -0.43918668440524045], [3.042641932101079, -729.7058710398618, -0.13593757428616202], [-0.4408832902890158, -0.13627113458444567, -37.71382311430928]]" pbc="T T T"
Mo      -0.04001506       0.85570672       9.93634573     -25.63612930      18.38239493      47.69622186      28.91610426       8.38305258       0.09801797       1.25114174      -0.23232507       0.37272237      28.91610426       8.38305258       0.09801797     -31.83840749      83.47410405      38.47435063      -0.13689922       0.82392042       0.19500395       1.25114174      -0.23232507       0.37272237      -0.13689922       0.82392042       0.19500395      -0.02433195       0.03606324       0.09683127      -1.64210000       0.26327000      -0.03828000      -0.09696000      -1.93386000       0.00744000      -0.06320000       0.20656000      -0.07029000
S        1.78022347       1.83304732      11.48213852     -10.40453748       0.51416130      -0.01954495       5.17758776      -5.68709170      -1.33401503      -0.08886571      -0.03602101      -0.23955491       5.17758776      -5.68709170      -1.33401503      -9.62018972     -36.71782046      20.70092334      -0.10220561       0.45053378      -0.45981655      -0.08886571      -0.03602101      -0.23955491      -0.10220561       0.45053378      -0.45981655      -0.01883661      -0.05480877      -0.39493259       0.97773000      -0.00561000       0.00728000       0.13705000       0.57320000      -0.00372000      -0.08536000       0.19313000       0.01888000
Se       1.51491268       1.80316014       8.18173984      31.21722191       4.33609015      25.92522827       0.92260946      13.84447721       2.02450178       0.44237163      -0.19887989       0.30509809       0.92260946      13.84447721       2.02450178      18.33839954     -15.23265090      33.22095826      -0.05871520       0.70738016       0.32921712       0.44237163      -0.19887989       0.30509809      -0.05871520       0.70738016       0.32921712       0.01964356       0.08191011       1.08129824       0.39101000       0.01131000       0.00740000      -0.13412000       0.47845000      -0.01960000      -0.25212000       0.08626000       0.00479000
Mo      -1.58968028       3.92346199      10.09759749      17.26907339     -48.55136023     -67.63109073     -27.21785921      -1.86089700       3.12358802      -1.65331514      -0.13185414      -1.17382222     -27.21785921      -1.86089700       3.12358802      11.12784305     -58.00284663     -47.28905534       0.16275717      -1.13222834      -0.30285238      -1.65331514      -0.13185414      -1.17382222       0.16275717      -1.13222834      -0.30285238      -0.02996989      -0.03608437      -0.19845958      -1.67872000      -0.23131000      -0.00171000      -0.51024000      -1.54908000      -0.02136000       0.07372000      -0.07487000      -0.05454000
Se      -0.06583123       4.83785085      11.71567556       8.24151591      11.96922215      -0.69276989      13.21620502       5.87526724       2.08948416       0.12952798       0.12366629       0.53016380      13.21620502       5.87526724       2.08948416      15.57712849      -0.32216299     -13.09282318      -0.06739652      -0.21117588       0.23832131       0.12952798       0.12366629       0.53016380      -0.06739652      -0.21117588       0.23832131       0.02108034       0.06928573      -0.81932010       0.91951000       0.25229000      -0.01498000      -0.07390000       1.07227000      -0.00276000       0.04952000      -0.15199000       0.05520000
Se       0.08132093       4.70877001       8.28063563       1.19855534      18.98884024      36.04705954      11.33120770     -12.11961951      -2.24019288       0.41161701      -0.12234954       0.08801653      11.33120770     -12.11961951      -2.24019288      -2.87306269      23.25623333      39.78319515       0.10875278       0.20279239       0.01725159       0.41161701      -0.12234954       0.08801653       0.10875278       0.20279239       0.01725159       0.01768750      -0.04209792       0.90525070       0.83335000      -0.06539000      -0.00534000       0.02375000       0.58222000       0.00637000       0.24780000      -0.21749000       0.03314000
Mo      -3.38370547       6.76691447      10.05152556      79.19108310     -16.06678200     -11.39499828     -42.27184769      23.18285565       1.45890745       0.06647898       0.34604698       1.05897838     -42.27184769      23.18285565       1.45890745      54.86887591      29.67452779     -14.19968150      -0.05883064      -0.28873217      -0.47979720       0.06647898       0.34604698       1.05897838      -0.05883064      -0.28873217      -0.47979720       0.06662195      -0.02258082      -0.05716129      -1.66889000       0.21645000       0.01382000      -0.01430000      -1.31085000       0.01649000      -0.07748000      -0.14112000      -0.06032000
Se      -1.60308483       7.68348777      11.69234171     -14.34422721      13.08117066     -19.67970302      13.26745428       0.52357150      -1.42099424      -0.47015297      -0.14708077      -0.15930577      13.26745428       0.52357150      -1.42099424      -6.14763914       0.03085920     -18.38303468       0.21420067      -0.18512332      -0.04914085      -0.47015297      -0.14708077      -0.15930577       0.21420067      -0.18512332      -0.04914085       0.01514284      -0.03964428      -0.84816811       0.97921000      -0.18723000       0.00134000      -0.10504000       0.63954000       0.00981000      -0.11607000       0.28932000       0.04422000
S       -1.64041898       7.55023662       8.53184682     -14.65882870      24.97344049     -17.47520543      16.89254409       1.08273120      11.99934083      -0.41872769       0.21428444      -0.28112824      16.89254409       1.08273120      11.99934083      -8.23336283       9.66503091     -14.61794995      -0.10813753      -0.16764623       0.15068345      -0.41872769       0.21428444      -0.28112824      -0.10813753      -0.16764623       0.15068345      -0.01569977       0.02649212       0.38436924       0.82413000       0.02477000      -0.01401000       0.12499000       1.05947000       0.00459000      -0.22551000      -0.30440000       0.01334000
Mo       3.37228678       0.90982139       9.93624643     -16.45213917     -11.67770126     -11.20422926     -15.38082662     -14.11669575      -0.08638335      -0.83904557       0.07663293      -0.59439446     -15.38082662     -14.11669575      -0.08638335       0.62846706      57.78427470     -15.33648627       0.10264537      -0.54804675       0.56378458      -0.83904557       0.07663293      -0.59439446       0.10264537      -0.54804675       0.56378458      -0.01248610       0.02783790      -0.10392768      -1.52737000      -0.04461000       0.01728000       0.19908000      -1.21136000      -0.00530000       0.16406000       0.38592000      -0.05265000
S        4.95164059       1.93919149      11.38274626       4.08716223      15.39462532       5.09789737      13.50062678       8.16198147      -4.25032138       0.07462368       0.13050913      -0.09521259      13.50062678       8.16198147      -4.25032138       8.63334543     -11.45906835       1.87082387       0.03624316      -0.08690357       0.21286325       0.07462368       0.13050913      -0.09521259       0.03624316      -0.08690357       0.21286325       0.00687563      -0.00293475      -0.37277635       0.83144000      -0.10715000       0.00664000      -0.22227000       0.90188000      -0.00762000       0.23165000      -0.29709000       0.01213000
Se       4.89057542       1.88606976       8.11183760      13.90486295      14.82676395      13.42265279       4.14981914      -1.88917654      -1.97650537       0.09457465       0.04367740       0.05294999       4.14981914      -1.88917654      -1.97650537       2.60171094      -7.32846652      22.63547788      -0.02014632       0.27069935       0.10163442       0.09457465       0.04367740       0.05294999      -0.02014632       0.27069935       0.10163442      -0.02607887       0.00139467       1.07779228       0.52834000      -0.05290000      -0.00191000       0.20035000       0.48391000       0.00217000      -0.19598000       0.15864000       0.03511000
Mo       1.70356930       3.79934579      10.18249297     -55.80319420      23.43814511     -64.27301610      -8.80003210     -21.65506537      -7.40853131      -1.07249310       0.16323237      -0.13432082      -8.80003210     -21.65506537      -7.40853131     -38.09614441       0.86714166     -68.51462032       0.06177965      -1.35559500      -0.26306632      -1.07249310       0.16323237      -0.13432082       0.06177965      -1.35559500      -0.26306632      -0.06116557      -0.00377596      -0.11061208      -2.13745000       0.29991000       0.02638000      -0.05073000      -1.36185000       0.00178000       0.10694000       0.09673000      -0.05556000
Se       3.32095232       4.72793355      11.87901247      43.15337745      -4.45463262     -19.95173863       0.58536721      10.05833452       6.38537838      -0.51038750      -0.09309618       0.46995673       0.58536721      10.05833452       6.38537838      21.85679386     -35.54077880     -19.82322544       0.15703329      -0.24069736      -0.29042430      -0.51038750      -0.09309618       0.46995673       0.15703329      -0.24069736      -0.29042430       0.05804319       0.02002898      -1.17690193       0.57229000      -0.22106000       0.00709000      -0.06260000       0.33610000       0.00329000       0.39156000       0.07083000       0.02512000
S        3.25035502       4.62069715       8.50533560      31.18609844      25.75816176       8.59740929      19.34053984       7.33044267      -2.68235124      -0.08122787       0.20843619       0.07336250      19.34053984       7.33044267      -2.68235124      12.58915794      34.41265730      12.98672420       0.01575292       0.17370876       0.09701162      -0.08122787       0.20843619       0.07336250       0.01575292       0.17370876       0.09701162      -0.03129428      -0.00540663       0.44676812       1.03332000      -0.01839000      -0.00212000       0.03279000       0.95528000       0.00242000      -0.70578000      -0.39900000       0.00961000
Mo      -0.02184445       6.69572141       9.96752371      58.57867426     -56.93908009      45.69940422     -32.13111879      30.39515864       2.79909063       1.37544112      -0.18776009       0.47816970     -32.13111879      30.39515864       2.79909063      -5.17305517     -38.79186296      31.77580108      -0.17576870       0.89067413       0.05082405       1.37544112      -0.18776009       0.47816970      -0.17576870       0.89067413       0.05082405       0.02271612      -0.04232676       0.05078097      -1.38883000      -0.29152000      -0.01457000      -0.02290000      -1.77616000       0.00767000       0.17919000      -0.17468000      -0.05097000
Se       1.62592221       7.71635374      11.65868140      -1.42326068      -3.52625922     -22.22518910       5.72416372      -8.31759337       2.58825848      -0.55800958       0.10173011       0.05529919       5.72416372      -8.31759337       2.58825848      -4.53989419      -0.88064886     -23.92815904      -0.01001481      -0.41919926      -0.19091460      -0.55800958       0.10173011       0.05529919      -0.01001481      -0.41919926      -0.19091460      -0.01621388      -0.00958403      -0.75798262       0.89255000       0.07699000      -0.00400000       0.29799000       0.89937000       0.01870000      -0.17035000       0.14126000       0.03767000
Se       1.64925605       7.60018098       8.31211150       5.61667423       0.23256510       6.64274076       7.30513549       7.74876858      -4.19604251       0.38643512      -0.12121233       0.39709807       7.30513549       7.74876858      -4.19604251      18.22229556     -15.93781023       3.19213434      -0.01080524       0.54264305      -0.22666624       0.38643512      -0.12121233       0.39709807      -0.01080524       0.54264305      -0.22666624       0.01243309      -0.00045571       0.85029598       0.55298000      -0.06779000       0.00806000      -0.04595000       0.80195000       0.00787000       0.21925000       0.07698000       0.03275000
Mo       6.52583116       1.01159667       9.83893933      63.73254943      -4.62554744      39.29888156     -34.41401019      13.78380642       4.64132890       1.32369432       0.21188893       0.86755649     -34.41401019      13.78380642       4.64132890      19.14991623      23.80038454      43.26787488      -0.10244658       0.82111464      -0.66465589       1.32369432       0.21188893       0.86755649      -0.10244658       0.82111464      -0.66465589       0.07819613      -0.00788519       0.06371235      -0.95661000      -0.17961000       0.00479000       0.01998000      -1.48037000       0.02184000      -0.04697000       0.00185000      -0.03597000
Se       8.25720249       1.91069441      11.69105090     -15.73111797      11.23149270     -20.25005948      10.83868504     -11.28841191      -3.87479326      -0.64307414      -0.16626748      -0.19987594      10.83868504     -11.28841191      -3.87479326      -8.62017938       8.06770894     -22.35103070       0.17261708      -0.38963202      -0.09965272      -0.64307414      -0.16626748      -0.19987594       0.17261708      -0.38963202      -0.09965272       0.00091530      -0.07749535      -0.90661688       0.66911000      -0.06864000      -0.00779000       0.15563000       0.57541000      -0.01109000      -0.13359000       0.15469000       0.02534000
Se       8.25442229       1.91148876       8.39363102      -7.01390338      14.70351737      -4.14340357      10.68501075      -4.10582738       3.98156230      -0.24725140       0.16189509       0.18095870      10.68501075      -4.10582738       3.98156230       3.73423869      -1.69198867       4.26126662      -0.11650541      -0.03604032       0.33438540      -0.24725140       0.16189509       0.18095870      -0.11650541      -0.03604032       0.33438540       0.02343089       0.04992177       0.62298806       1.08837000      -0.05470000      -0.00769000       0.11507000       1.40365000      -0.00470000       0.07018000       0.09966000       0.06560000
Mo       4.99671959       3.85197106       9.87379116     -42.44147881    -100.62578681      25.50873275     -39.17276908      -6.86860806       0.03058106       0.66567220      -0.05206848      -0.27119828     -39.17276908      -6.86860806       0.03058106      -4.61880974     -80.64428664      36.14149035      -0.01593791       0.66683686      -0.19055393       0.66567220      -0.05206848      -0.27119828      -0.01593791       0.66683686      -0.19055393      -0.03899953      -0.04395401       0.01411654      -1.24522000       0.18790000       0.00588000       0.37383000      -1.52393000      -0.02263000       0.20024000      -0.11856000      -0.05198000
S        6.57369037       4.82812014      11.45274780      -4.39849876      17.15690122      17.59702821      18.90892353      -2.82931614      -5.07912213       0.27391415       0.16379275      -0.01187988      18.90892353      -2.82931614      -5.07912213      -8.97613147      -8.17147397      14.38448118      -0.05655026       0.21240796       0.31150005       0.27391415       0.16379275      -0.01187988      -0.05655026       0.21240796       0.31150005      -0.02411942       0.01324257      -0.34240495       0.97530000       0.12233000      -0.00758000       0.04497000       0.74941000       0.00221000      -0.07629000       0.07445000       0.00645000
Se       6.66116746       4.89156834       8.21589662     -13.49516525      15.99746060      28.51111706       9.33529145      -0.58211192      -5.33596127       0.71655029      -0.32722231      -0.08039509       9.33529145      -0.58211192      -5.33596127      -1.14330183       6.64355968      24.63327145      -0.10690238       0.51255641       0.09605368       0.71655029      -0.32722231      -0.08039509      -0.10690238       0.51255641       0.09605368       0.04825540      -0.01468979       1.05302777       0.48932000       0.04010000       0.00331000      -0.17126000       0.66847000      -0.00142000       0.30606000       0.06859000       0.02210000
Mo       3.48915459       6.57885360      10.15697468    -185.01136603      22.38806363     -21.88622586      12.81329618     -37.60175674      -3.68402048      -0.48535895      -0.33634527      -1.62261124      12.81329618     -37.60175674      -3.68402048     -72.92371549     103.92868961     -49.70518956       0.10366841      -1.03981543       0.86690816      -0.48535895      -0.33634527      -1.62261124       0.10366841      -1.03981543       0.86690816      -0.11460756       0.06591284      -0.03429353      -1.80978000       0.02071000      -0.00180000      -0.02071000      -1.47979000      -0.00920000      -0.13317000      -0.19636000      -0.05900000
Se       4.96216564       7.76361719      11.84167832      18.55165078     -10.46472530     -33.86075842      -0.90016906       5.30977359       3.36095475      -0.03936199       0.28130545       0.02296191      -0.90016906       5.30977359       3.36095475       9.03957485     -38.14398856     -32.75273203      -0.14741564      -0.36619532      -0.25401191      -0.03936199       0.28130545       0.02296191      -0.14741564      -0.36619532      -0.25401191      -0.00755212       0.01323637      -1.02878779       0.70776000       0.08899000       0.00185000      -0.15077000       0.80360000      -0.00483000       0.25663000      -0.49100000       0.04160000
S        4.88739804       7.60415270       8.46373185      30.85536588       4.56422352      14.62884458      -2.18116540      -6.00123616      -0.90741244      -0.11205814      -0.06688844      -0.07381306      -2.18116540      -6.00123616      -0.90741244       5.36531294     -35.37827595      12.73523196       0.15562298       0.18693914      -0.11703239      -0.11205814      -0.06688844      -0.07381306       0.15562298       0.18693914      -0.11703239       0.00477865      -0.00539746       0.51726814       0.78925000      -0.00907000       0.01065000      -0.04375000       0.64310000       0.00160000      -0.21493000       0.46171000       0.00824000
27
Lattice="9.381253549691582 0.0 0.0 -4.690626774845791 8.12416557403291 0.0 -0.0 0.0 19.251270409322093" Properties=species:S:1:pos:R:3:raman_tensor:R:27:born_effective_charge:R:9 susceptibility_tensor="_JSON [[-488.0389713315958, 3.775573772467238, 0.04076255624659301], [3.7754913408403663, -486.2508650652944, 0.025900694363332664], [0.05735162925776956, 0.01953968157019571, -31.707103901635755]]" pbc="T T T"
W       -0.02945714       0.84037269       9.61212620      11.02051679     -13.71625386      -1.35605038      -0.85660111       6.49354267       1.17635869      -0.23574056      -0.00121372       0.07989614      -0.85660111       6.49354267       1.17635869      14.22997602      32.86159076      -6.60412819      -0.01051213      -0.25442994       0.38663028      -0.23574056      -0.00121372       0.07989614      -0.01051213      -0.25442994       0.38663028       0.01279940       0.01271877      -0.05881187      -0.84409000      -0.30230000      -0.01235000      -0.12554000      -0.82026000      -0.00789000       0.18735000      -0.12214000       0.00424000
S        1.56826416       1.70804483      11.24493338      -4.54073781      10.81097913     -15.73833297       8.39633403       0.23680913       1.84795634      -0.18623002       0.08477299      -0.05441090       8.39633403       0.23680913       1.84795634       1.35510139       5.74857392     -17.10431838      -0.04043812      -0.15173681       0.16625103      -0.18623002       0.08477299      -0.05441090      -0.04043812      -0.15173681       0.16625103       0.01767277       0.00310287      -0.66424755       0.36209000      -0.01648000       0.00208000      -0.04589000       0.25685000       0.00063000      -0.03290000       0.19435000      -0.00069000
S        1.59152966       1.73956585       7.99751865      -4.79711049      12.25972753       9.06866223       9.02022023       0.29312324       0.90934275       0.08795373      -0.08850646      -0.01042151       9.02022023       0.29312324       0.90934275      -4.56959678       4.36621858      13.27733896       0.14814529       0.11834764       0.23544682       0.08795373      -0.08850646      -0.01042151       0.14814529       0.11834764       0.23544682      -0.01101930       0.01273741       0.69773298       0.25942000       0.14077000      -0.00398000       0.04420000       0.26557000       0.00026000      -0.03520000      -0.09743000      -0.00312000
W       -1.58524422       3.60784249       9.73736593      25.11719100      -7.84395439     -18.53023176      -9.88314090      -0.31759528      -0.05918173      -0.56566836       0.15900487       0.10983340      -9.88314090      -0.31759528      -0.05918173      15.64327191      16.13011705     -14.05007970      -0.03984306      -0.60953024       0.07499972      -0.56566836       0.15900487       0.10983340      -0.03984306      -0.60953024       0.07499972       0.02417269       0.01033683       0.01256888      -0.77621000      -0.12865000      -0.00621000      -0.01505000      -0.92562000       0.00786000       0.09769000      -0.07242000      -0.00682000
S        0.00722357       4.43179799      11.34390560      -0.80202664      15.82604421     -12.23116739      11.33585498       1.69521433      -0.61026460      -0.00909731      -0.04165309       0.04889327      11.33585498       1.69521433      -0.61026460      -1.58553319       7.36145491     -14.85622395      -0.02019559       0.00002057       0.20454718      -0.00909731      -0.04165309       0.04889327      -0.02019559       0.00002057       0.20454718       0.01877458       0.01419227      -0.79126419       0.18766000      -0.03215000       0.01405000      -0.08688000       0.18386000       0.00765000       0.07710000       0.17637000      -0.00568000
S        0.03489826       4.52692390       8.09020544      -6.87492068       9.83470197      11.81909503       9.37209351       1.12442436       2.56374958      -0.00420504       0.11389031      -0.22323406       9.37209351       1.12442436       2.56374958      -5.55872595      -9.38736779      13.63975316       0.09275324       0.01294157      -0.06767702      -0.00420504       0.11389031      -0.22323406       0.09275324       0.01294157      -0.06767702      -0.04043210      -0.00438348       0.59316485       0.41734000       0.09522000       0.00011000       0.06064000       0.41805000       0.01121000      -0.17380000      -0.06463000       0.00310000
W       -3.14647244       6.32212058       9.58820400      32.31879259     -14.70237593       1.86250341     -16.20470729      12.99600714       2.85451832      -0.00868974      -0.15496165       0.65996303     -16.20470729      12.99600714       2.85451832      10.90498994       9.29457971       3.19737611       0.05463295       0.01609187      -0.25009186      -0.00868974      -0.15496165       0.65996303       0.05463295       0.01609187      -0.25009186       0.02017437      -0.00297206       0.03046080      -0.87860000       0.04171000      -0.00707000       0.09026000      -0.91299000      -0.00146000       0.02986000       0.27669000      -0.01683000
S       -1.48833588       7.29007832      11.20046624      -6.80561423       3.46357160     -11.66611236       3.70524651      -0.72044234      -0.40497860      -0.08466024      -0.13356070      -0.13620798       3.70524651      -0.72044234      -0.40497860      -3.31114453     -13.29144907     -11.06593354       0.03889840      -0.15582534      -0.11171878      -0.08466024      -0.13356070      -0.13620798       0.03889840      -0.15582534      -0.11171878      -0.00196478       0.02416448      -0.61148645       0.30249000      -0.05737000       0.00987000      -0.01717000       0.51620000      -0.00010000      -0.08569000      -0.21445000      -0.00056000
S       -1.44536973       7.16981065       8.01731310      -6.38684255       8.94520937      11.83102974       9.73258415       1.21688228      -0.36216325       0.08634939       0.07243056       0.04765288       9.73258415       1.21688228      -0.36216325      -4.16588345       2.64055896      11.71483970      -0.11411874       0.11574844       0.16717855       0.08634939       0.07243056       0.04765288      -0.11411874       0.11574844       0.16717855       0.00604997       0.00004468       0.67142121       0.33688000      -0.06777000       0.00863000      -0.03413000       0.21997000      -0.00480000       0.13214000      -0.17063000       0.00191000
W        3.16439063       0.95510542       9.58735969     -25.08863687     -19.75515625       9.45777921     -26.63449814     -14.39513802      -0.36706736       0.35781569       0.04918872      -0.40606203     -26.63449814     -14.39513802      -0.36706736      -5.42338400     -17.02809793       6.69187219      -0.11195675       0.29477764      -0.59637360       0.35781569       0.04918872      -0.40606203      -0.11195675       0.29477764      -0.59637360      -0.01357803      -0.02376594       0.04485303      -0.57612000      -0.12042000       0.06187000       0.08137000      -0.43216000       0.01962000       0.03444000       0.07061000       0.02087000
S        4.57561261       1.85420476      11.30328478       9.85089249       6.16342000     -21.04133632       6.83969536       3.47242808      -1.16922528      -0.16681565      -0.05387292       0.13847231       6.83969536       3.47242808      -1.16922528       7.12368356      -9.13661347     -20.14229659       0.06261697      -0.09878913      -0.04500658      -0.16681565      -0.05387292       0.13847231       0.06261697      -0.09878913      -0.04500658      -0.00385614      -0.01419094      -0.75158414       0.26009000      -0.05910000      -0.00454000       0.02686000       0.20184000       0.00011000       0.15002000      -0.02415000      -0.02057000
S        4.70507391       1.84623070       8.05211755      -6.05672655      10.20579658      14.52946736       9.33094697       0.37771264       0.17180810      -0.24137433       0.13829430      -0.12141411       9.33094697       0.37771264       0.17180810      -2.12386578      -9.19073705      14.13979089      -0.00023770      -0.16388501       0.14655737      -0.24137433       0.13829430      -0.12141411      -0.00023770      -0.16388501       0.14655737      -0.01102322       0.02492118       0.60202512       0.37861000      -0.03125000       0.00143000       0.05045000       0.50042000       0.00914000       0.02809000       0.15554000       0.02555000
W        1.52726808       3.64583657       9.64768115      20.33337915     -30.38432591       0.48962433     -31.10304311       9.22049268      -0.44883868       0.03728773      -0.22343685       0.70256925     -31.10304311       9.22049268      -0.44883868       2.61600570     -32.58955233       0.35841784       0.03915939      -0.01252901      -0.65059369       0.03728773      -0.22343685       0.70256925       0.03915939      -0.01252901      -0.65059369       0.02472927      -0.04744937       0.03008044      -0.48756000      -0.02800000       0.02990000       0.01149000      -0.47311000       0.02275000       0.00932000      -0.08424000       0.01040000
S        3.12517700       4.61698393      11.25046832       0.29589691       1.40599015     -20.55030332       2.93582655      -1.72404725       1.54862556      -0.16037981      -0.01066745       0.06980863       2.93582655      -1.72404725       1.54862556       0.08927526     -14.53449588     -19.44827624       0.11976617      -0.21795840      -0.01540661      -0.16037981      -0.01066745       0.06980863       0.11976617      -0.21795840      -0.01540661       0.01069569       0.02770492      -0.68245969       0.14635000      -0.03744000       0.00415000      -0.01235000       0.50840000       0.00342000      -0.04207000      -0.15998000      -0.01149000
S        3.22536878       4.43817724       8.00145878     -15.57420295       9.86072830      12.56453519       9.51133513      -4.70420687       1.26396394       0.17467713       0.06986618      -0.23070340       9.51133513      -4.70420687       1.26396394      -8.40552031       2.66444322      11.22941665      -0.06776345      -0.02652531       0.07492193       0.17467713       0.06986618      -0.23070340      -0.06776345      -0.02652531       0.07492193       0.00419887      -0.03322945       0.67608592       0.41355000      -0.04299000       0.00868000       0.01045000       0.23910000      -0.00141000       0.28647000      -0.23638000       0.00703000
W        0.05009589       6.29266344       9.67488679     -20.71838427     -20.91185853      -6.24785502     -12.51873122      -9.84791033      -0.51019335      -0.25630415       0.03564456      -0.19950950     -12.51873122      -9.84791033      -0.51019335      -4.54604560      25.27847407      -4.35061456      -0.02978576      -0.09654485       0.23562086      -0.25630415       0.03564456      -0.19950950      -0.02978576      -0.09654485       0.23562086      -0.01832399      -0.00172683      -0.05753067      -0.54946000       0.18473000       0.03233000      -0.14385000      -0.57484000       0.03961000       0.07510000       0.27921000       0.00732000
S        1.59781510       7.21071292      11.24071182       2.38432959       7.32430879     -18.83993010       8.56459768      -1.88988828       0.70901637      -0.14441710       0.22631141       0.20487779       8.56459768      -1.88988828       0.70901637      -0.34325417      -4.50573788     -16.09042832      -0.04489544      -0.18520024      -0.03774161      -0.14441710       0.22631141       0.20487779      -0.04489544      -0.18520024      -0.03774161       0.03109486      -0.00796583      -0.68926593       0.33124000      -0.09173000      -0.00947000      -0.11520000       0.29018000      -0.00787000      -0.14243000      -0.01163000      -0.01660000
S        1.56160347       7.28135376       8.04423729      -1.03512823       2.29263238       7.65887818       7.53907175      -1.92271311       0.86683619      -0.15356744      -0.02309142      -0.15787248       7.53907175      -1.92271311       0.86683619      -4.55687766     -16.79202947       4.33791845       0.20680061      -0.09999294      -0.12536099      -0.15356744      -0.02309142      -0.15787248       0.20680061      -0.09999294      -0.12536099      -0.04652843      -0.00769595       0.61257583       0.43191000       0.14596000       0.00054000       0.15912000       0.39819000      -0.00450000      -0.07938000       0.17419000       0.01653000
W        6.17839978       0.92208341       9.61240764      39.57530762     -14.86610399      11.29490115     -14.29333031      15.72089981      -2.39553435       0.49188512      -0.14853045       0.75976256     -14.29333031      15.72089981      -2.39553435       3.19589714      19.10162560      13.53467076       0.01139323       0.46044114       0.02369033       0.49188512      -0.14853045       0.75976256       0.01139323       0.46044114       0.02369033       0.02806493       0.00908136       0.08554507      -0.66601000       0.15074000      -0.04129000       0.06905000      -0.64931000      -0.00882000      -0.02431000      -0.19298000      -0.01726000
S        7.81786765       1.73337422      11.25131263     -10.85577233       7.47690475     -11.89751612       7.44967303      -3.18461036      -1.85166107      -0.05947449      -0.11434848      -0.10716881       7.44967303      -3.18461036      -1.85166107      -4.82033467      -4.77554486      -9.71432875       0.07932010      -0.04607101       0.07345269      -0.05947449      -0.11434848      -0.10716881       0.07932010      -0.04607101       0.07345269      -0.00863650      -0.01701269      -0.66711254       0.48545000       0.06640000       0.00260000       0.03812000       0.32486000      -0.00824000      -0.15556000       0.09826000       0.00606000
S        7.79919895       1.95186361       8.04620736      -5.51199945      -3.36662695      15.45151303      -1.33276238       0.91113684      -0.33022697       0.11460042       0.10376472      -0.22519626      -1.33276238       0.91113684      -0.33022697       1.62490246     -29.80112111      12.87657056      -0.07605037       0.14532644      -0.29255390       0.11460042       0.10376472      -0.22519626      -0.07605037       0.14532644      -0.29255390      -0.00132105       0.03073001       0.64757265       0.20481000       0.04045000       0.00112000      -0.03142000       0.50846000      -0.01484000      -0.00834000       0.36315000      -0.00046000
W        4.69334734       3.60859299       9.65443565      -8.36703133     -19.77151870      -2.27543404      -6.43106790      -2.26366219      -1.90294076      -0.21526194      -0.02155446      -0.16641697      -6.43106790      -2.26366219      -1.90294076       0.14012295      21.67446818      -0.49619951      -0.06948623      -0.15689495       0.29503696      -0.21526194      -0.02155446      -0.16641697      -0.06948623      -0.15689495       0.29503696      -0.00644107      -0.00201672      -0.05497050      -0.66755000       0.00917000      -0.02116000       0.13231000      -0.92151000      -0.04040000      -0.24612000      -0.02362000      -0.02689000
S        6.21995873       4.53564847      11.23433256      -0.94159933       8.86242875      -9.26206686       7.20088434      -0.34129042       1.04987817       0.11392597       0.10152948      -0.00781594       7.20088434      -0.34129042       1.04987817       0.68191984      -7.98603189     -10.84145236      -0.10345996      -0.03092606       0.09673065       0.11392597       0.10152948      -0.00781594      -0.10345996      -0.03092606       0.09673065      -0.02430918       0.01039283      -0.63781311       0.41084000       0.04443000      -0.01368000       0.05942000       0.52799000      -0.00623000       0.03391000      -0.13786000       0.01055000
S        6.30626626       4.41932092       8.01346678      -4.35160915      12.69661186      18.55082720       8.86086275      -4.99603258      -1.96139539       0.16849938      -0.09458694      -0.06691148       8.86086275      -4.99603258      -1.96139539      -4.34310548       7.19509638      20.83171090       0.05865513       0.13439196       0.00612694       0.16849938      -0.09458694      -0.06691148       0.05865513       0.13439196       0.00612694       0.00692366      -0.02117725       0.69139521       0.30557000      -0.03616000      -0.01285000      -0.00804000       0.19306000       0.00397000       0.09144000      -0.20984000      -0.00467000
W        3.16054432       6.31949383       9.48435353      -5.08948856      -8.40549497      31.66492459     -18.56545843      -4.99371201      -2.88041843       1.10868388       0.07391351      -0.31730883     -18.56545843      -4.99371201      -2.88041843       6.93058523      26.59097772      28.00300985      -0.08697650       1.01107391      -0.05413792       1.10868388       0.07391351      -0.31730883      -0.08697650       1.01107391      -0.05413792      -0.00910832       0.00605432       0.14540495      -0.60649000       0.03155000      -0.04059000      -0.24756000      -0.68521000      -0.02369000      -0.24395000      -0.09759000      -0.00464000
S        4.72064679       7.15949127      11.18114086      -7.65826784      13.06702043     -12.77549063       9.98578115      -2.60712294      -1.30796645      -0.00189367      -0.12365475      -0.18424531       9.98578115      -2.60712294      -1.30796645      -7.09231622      -6.65974016     -18.01871355      -0.14619964      -0.01648958      -0.02917164      -0.00189367      -0.12365475      -0.18424531      -0.14619964      -0.01648958      -0.02917164      -0.02764852      -0.01990795      -0.61559116       0.54905000       0.09304000      -0.00025000       0.08765000       0.41574000       0.00128000       0.00106000       0.11134000       0.01437000
S        4.70488628       7.18557116       7.97641083       0.53715243      13.46503782       6.23560691       8.36987286      -0.02434314       2.09090860      -0.24211941       0.00922242       0.08700505       8.36987286      -0.02434314       2.09090860      -3.40859521      -6.06767980       8.65583921       0.05674525       0.00834922       0.08320961      -0.24211941       0.00922242       0.08700505       0.05674525       0.00834922       0.08320961       0.02686206       0.01472706       0.69858398       0.26874000       0.00763000      -0.00391000      -0.03830000       0.42627000       0.00273000       0.03575000       0.02027000       0.00836000
27
Lattice="10.16799718066704 0.0 0.0 -5.08399859033352 8.805485558457656 0.0 -0.0 0.0 20.532236706920955" Properties=species:S:1:pos:R:3:raman_tensor:R:27:born_effective_charge:R:9 susceptibility_tensor="_JSON [[-710.120122190251, 1.4316397175177684, -0.09603583494127577], [1.431648348637402, -705.5572778700906, 0.05173361447294709], [-0.09869407349829305, 0.05255298567749576, -39.75636628773194]]" pbc="T T T"
W        0.00803272       1.02208708      10.25473020      50.65226565     -39.26495068      12.37458129     -20.51236912      14.94066839      -3.93755717       0.22657282       0.07672961       0.19760510     -20.51236912      14.94066839      -3.93755717      21.90848253     -20.66250809       7.41787726       0.10329441       0.15826013      -0.38647650       0.22657282       0.07672961       0.19760510       0.10329441       0.15826013      -0.38647650       0.00913684      -0.02754333      -0.02252794      -1.25164000      -0.07936000       0.01348000       0.16819000      -1.39114000       0.00290000      -0.10670000      -0.08299000      -0.03551000
Se       1.68880265       1.96171170      11.93051781       6.88878140       7.85552538      -5.04387306       8.45077005       7.02066377       3.83792771      -0.28715922       0.08654355       0.16996473       8.45077005       7.02066377       3.83792771       9.76756303       3.94447343      -5.91408325       0.06032862      -0.33941816       0.22175202      -0.28715922       0.08654355       0.16996473       0.06032862      -0.33941816       0.22175202      -0.03342216       0.01739040      -0.76826532       0.59293000       0.08655000      -0.01599000       0.02296000       0.62058000      -0.00212000       0.04799000       0.05951000       0.01440000
Se       1.78417847       2.03553136       8.70228039     -18.76059155       4.67258133      -2.79582335       7.75806868      -2.68218521       0.14750385       0.06926768      -0.06584730       0.04749204       7.75806868      -2.68218521       0.14750385      -3.11565085      -7.27607561      -4.90718785      -0.06203715       0.03474331       0.02364816       0.06926768      -0.06584730       0.04749204      -0.06203715       0.03474331       0.02364816       0.02522648       0.01656069       0.58593489       0.79778000      -0.01128000      -0.00930000      -0.09757000       0.82121000      -0.00507000       0.30988000       0.06474000       0.03233000
W       -1.68859929       3.84838357      10.33038010      11.29055525     -20.71889391      -6.50489485     -11.92911817       3.34099778       4.26153066       0.15649382      -0.02670947      -0.28739033     -11.92911817       3.34099778       4.26153066      20.10282455       5.55006449      -3.36335169      -0.06223465       0.12795395       0.20601205       0.15649382      -0.02670947      -0.28739033      -0.06223465       0.12795395       0.20601205       0.00302241       0.02598839       0.06644423      -1.40551000      -0.20514000       0.01887000      -0.37030000      -1.39002000       0.00392000      -0.08736000      -0.16293000      -0.06224000
Se       0.07758182       4.79095691      12.03697674     -20.84144798      19.39967190     -11.15881540       9.11220982      -7.98048669       0.32663049      -0.10398017       0.08101082      -0.36034301       9.11220982      -7.98048669       0.32663049     -13.19279296      16.20278243     -21.91192292      -0.01868076      -0.30796715       0.26728081      -0.10398017       0.08101082      -0.36034301      -0.01868076      -0.30796715       0.26728081      -0.00500824       0.00488218      -0.90724680       0.44774000      -0.02462000       0.00478000      -0.01303000       0.46703000       0.00305000      -0.12367000       0.14938000       0.00220000
Se      -0.13177724       4.73910013       8.60110882      12.00298174      18.18997153       5.10314995      10.68897650       7.26662595      -0.55968983       0.13506285      -0.05006859       0.05137171      10.68897650       7.26662595      -0.55968983       7.27396998      12.19430073      15.40236363       0.07710337       0.08551123       0.04971847       0.13506285      -0.05006859       0.05137171       0.07710337       0.08551123       0.04971847      -0.01533207      -0.02966405       0.77218145       0.73785000       0.10947000      -0.00438000       0.05100000       0.56934000       0.00244000      -0.23123000      -0.35222000       0.02477000
W       -3.42041257       6.80849091      10.27293091      15.18275684      22.76708577       7.49695693      12.85504394       6.72028020      -2.06487150       0.02847058      -0.07804744       0.51743419      12.85504394       6.72028020      -2.06487150     -10.65069619      81.48333608       8.55297166      -0.04390495       0.30325672       0.50532908       0.02847058      -0.07804744       0.51743419      -0.04390495       0.30325672       0.50532908       0.02199799       0.04186331       0.01720959      -1.68358000      -0.17456000       0.00569000       0.15268000      -1.47886000       0.00831000       0.04253000       0.13603000      -0.03807000
Se      -1.66653474       7.77953464      11.88679542       3.12204383       6.99797968      -6.94223494       6.74162265       2.66202234      -2.42071351      -0.14617142      -0.15186242      -0.01840226       6.74162265       2.66202234      -2.42071351       0.16427740     -11.77667956       0.85056497       0.10313429      -0.19765130      -0.17199484      -0.14617142      -0.15186242      -0.01840226       0.10313429      -0.19765130      -0.17199484       0.01128090      -0.02109460      -0.71237798       0.82325000      -0.03967000       0.00125000      -0.02820000       0.73850000      -0.00769000       0.08771000      -0.02086000       0.01946000
Se      -1.74065944       7.80627648       8.48834573      10.24565745       2.26752339      16.71201629       5.17517035       2.23824113       2.04912090       0.28004229       0.18398749      -0.08672983       5.17517035       2.23824113       2.04912090       0.48863321     -13.78875337      12.88965239       0.01462764       0.31336753      -0.19545873       0.28004229       0.18398749      -0.08672983       0.01462764       0.31336753      -0.19545873      -0.01737937       0.01144912       0.94655347       0.42739000       0.02547000      -0.01054000       0.04153000       0.36639000      -0.00762000      -0.28415000       0.03887000       0.00653000
W        3.49392719       0.97043365      10.25574700     -80.32316680      11.34877210       3.36402449       4.78346735     -31.25494807      -3.44930127      -0.08743604      -0.07989032      -1.09254078       4.78346735     -31.25494807      -3.44930127     -29.01738944      43.91242949      -2.88189049      -0.08924476      -0.18719530       0.01562516      -0.08743604      -0.07989032      -1.09254078      -0.08924476      -0.18719530       0.01562516      -0.06432826       0.01103256       0.06195284      -1.43194000      -0.08531000      -0.05184000      -0.08299000      -1.51488000      -0.01720000      -0.05000000      -0.15168000      -0.01961000
Se       5.07749107       1.98906361      11.88771054      18.27947599       3.34544004       1.22170686       5.44146857       0.93390580       2.47071960       0.06646293       0.05566916       0.31007928       5.44146857       0.93390580       2.47071960       2.71143733     -21.68126729       3.08639860      -0.08977289      -0.00964770      -0.00966724       0.06646293       0.05566916       0.31007928      -0.08977289      -0.00964770      -0.00966724       0.02762200      -0.01019872      -0.71020827       0.82712000       0.00183000       0.00163000      -0.00555000       0.77850000      -0.00853000       0.05612000      -0.20295000       0.03880000
Se       5.01719485       2.03075240       8.53613531      26.80318618       3.41253126      12.70820991       4.45046327       6.97348774      -2.34119002       0.02116155      -0.04680309       0.14761337       4.45046327       6.97348774      -2.34119002      10.74295142     -14.64724763      11.19976123       0.14960242       0.23545306       0.08399327       0.02116155      -0.04680309       0.14761337       0.14960242       0.23545306       0.08399327      -0.01674869       0.03183566       0.86380184       0.43364000       0.02889000       0.00726000      -0.01570000       0.55767000       0.00293000      -0.30958000       0.26461000       0.00325000
W        1.66002722       4.01371521      10.28045523      52.50523009     -26.51734211      -4.13419124     -36.05103533      20.57666039       2.13816735      -0.17523491       0.03825547       0.65540966     -36.05103533      20.57666039       2.13816735      19.34598961     -56.71450769       8.60618913      -0.01387421       0.11651743      -0.65403950      -0.17523491       0.03825547       0.65540966      -0.01387421       0.11651743      -0.65403950       0.02943469      -0.05063481       0.03619449      -1.27939000      -0.20453000      -0.06435000       0.19065000      -0.90085000      -0.01374000      -0.15295000       0.08186000      -0.03379000
Se       3.41583697       5.02522757      11.93336485      -5.14311770       7.39907553      -9.05616343       9.26661779      -0.67870520      -0.91529326      -0.15010262      -0.19012348      -0.08968051       9.26661779      -0.67870520      -0.91529326       0.68095308      -1.87199307      -7.80747816       0.08360099      -0.11597604       0.14564153      -0.15010262      -0.19012348      -0.08968051       0.08360099      -0.11597604       0.14564153      -0.02557357       0.04059036      -0.75200093       0.57400000      -0.02984000      -0.00752000       0.00583000       0.74401000       0.01265000      -0.04867000      -0.06345000       0.02262000
Se       3.38990858       4.88684113       8.54965875      -0.23708258      13.88670553      10.01235659      13.31721587       0.32313840       1.03135699       0.40459561       0.08167014       0.14982978      13.31721587       0.32313840       1.03135699       2.99448890      20.49297286      10.73182325      -0.21614748       0.17541447       0.14133697       0.40459561       0.08167014       0.14982978      -0.21614748       0.17541447       0.14133697       0.03526180      -0.03324216       0.85937136       0.41014000      -0.17521000      -0.00010000      -0.05871000       0.33130000       0.01298000       0.11096000      -0.28666000      -0.00349000
W       -0.07524318       6.77869868      10.20663557      13.24561640     -33.61918179      11.72284072     -16.62871068       4.29627104      -1.73268703       0.19712890       0.03888276       0.48288067     -16.62871068       4.29627104      -1.73268703      17.23410726      15.62940954      10.45165313       0.05096526       0.20254922       0.14998295       0.19712890       0.03888276       0.48288067       0.05096526       0.20254922       0.14998295       0.03254145       0.01460335      -0.01735721      -1.06653000       0.11828000      -0.01570000      -0.02343000      -1.22289000      -0.03758000       0.14420000       0.08241000      -0.02142000
Se       1.64813066       7.78553376      11.87245855       4.06691728      12.78842950      -7.06949487       9.84451659      -1.66105002       1.66307072      -0.30248806       0.09639296      -0.01463083       9.84451659      -1.66105002       1.66307072      -1.88749883      -0.17366098      -3.74115770      -0.07965871      -0.25175079      -0.01884161      -0.30248806       0.09639296      -0.01463083      -0.07965871      -0.25175079      -0.01884161      -0.00269297      -0.01710849      -0.68398592       0.69135000       0.04093000       0.00541000       0.03730000       0.73484000      -0.00402000       0.08014000       0.09569000       0.01566000
Se       1.64863906       7.79702360       8.60751465       3.81572649      12.65157560      -4.61931214      10.90995803      -2.36109419      -2.78337463       0.09668270      -0.17640249      -0.13538644      10.90995803      -2.36109419      -2.78337463      -1.79997312      -2.01867803      -7.12528482       0.08723517       0.14135698       0.10156401       0.09668270      -0.17640249      -0.13538644       0.08723517       0.14135698       0.10156401      -0.00914184       0.00563935       0.74779538       0.69880000      -0.01475000       0.00098000      -0.06480000       0.74851000      -0.00897000      -0.06557000      -0.13217000       0.02101000
W        6.74443253       0.98853269      10.23429252      -0.19997406     -25.83053968      -2.79146517     -21.49415533       4.70453669       1.07418636       0.01521315       0.09991510       0.44975691     -21.49415533       4.70453669       1.07418636       2.90520699      25.30363387      -0.45837067       0.03525747       0.11906998      -0.12573389       0.01521315       0.09991510       0.44975691       0.03525747       0.11906998      -0.12573389       0.01149332       0.00144759      -0.00846403      -1.30589000       0.31018000       0.05317000      -0.29101000      -1.19133000       0.00011000       0.01710000       0.06844000      -0.04045000
Se       8.46567109       1.86074348      11.95786972       0.55122481      12.00920086      -8.59319029       4.77206874      -2.62666151      -0.23098975      -0.11919384      -0.07849729      -0.08124957       4.77206874      -2.62666151      -0.23098975      -3.50725639      -2.06371220      -9.91873259      -0.02965815      -0.16707873       0.03640805      -0.11919384      -0.07849729      -0.08124957      -0.02965815      -0.16707873       0.03640805       0.01566273       0.00409187      -0.78413768       0.61958000      -0.01633000       0.00922000       0.00060000       0.62852000       0.00023000       0.07097000       0.15664000       0.01584000
Se       8.55575955       1.98865689       8.64401776     -15.58504997      10.20195091      -0.58039093       4.00723663      -9.38396766       5.35644822      -0.00322912       0.07916729      -0.23985809       4.00723663      -9.38396766       5.35644822     -13.26812889     -15.15281591       4.19887353      -0.02043850       0.13138733       0.07564294      -0.00322912       0.07916729      -0.23985809      -0.02043850       0.13138733       0.07564294       0.00711245       0.02867222       0.70451131       0.61120000      -0.02222000      -0.00106000       0.02470000       0.78887000      -0.00487000       0.15280000       0.12564000       0.02949000
W        5.12080674       3.93755691      10.32783810     -70.05323094     -26.23108595     -17.02054157      -6.18425488     -16.17238611      -0.47068482      -0.48163467       0.14656916      -0.53959404      -6.18425488     -16.17238611      -0.47068482     -45.58318169     -16.79142016     -16.18854948       0.06278819      -0.58292276      -0.08268923      -0.48163467       0.14656916      -0.53959404       0.06278819      -0.58292276      -0.08268923      -0.04469526      -0.02248774       0.03024201      -1.22781000       0.35036000       0.03365000       0.13433000      -1.35486000       0.02677000       0.19304000      -0.03103000      -0.04247000
Se       6.79079860       4.80722571      12.02721547      -1.47641395      13.48919818      -8.72924819       6.42648059      -1.30108941      -0.63518565      -0.25106473       0.07112250      -0.06233165       6.42648059      -1.30108941      -0.63518565      -1.40781485       2.93041563     -11.97347711      -0.06990024      -0.18513451       0.00964708      -0.25106473       0.07112250      -0.06233165      -0.06990024      -0.18513451       0.00964708       0.02273839       0.00315726      -0.91551740       0.51448000       0.02126000      -0.00050000      -0.05555000       0.51601000       0.00839000      -0.07561000       0.13236000       0.01170000
Se       6.74158549       4.87362273       8.67614863      11.73058879       2.81099581      12.05334912       3.73493251       2.07427424      -1.35664844       0.17285698      -0.05630998       0.27044416       3.73493251       2.07427424      -1.35664844       3.35946043     -20.65770374       4.70017881       0.03259778       0.02583384      -0.17288166       0.17285698      -0.05630998       0.27044416       0.03259778       0.02583384      -0.17288166      -0.01309788      -0.01312623       0.64674985       0.92859000       0.12758000       0.00961000       0.06818000       0.83997000       0.00541000       0.01220000       0.02838000       0.01743000
W        3.41756553       6.93609928      10.20551709       0.00784178     -31.23971551      13.24474134     -40.45900072      -6.17406942      -0.71822120       0.35548798      -0.03130989      -0.48083276     -40.45900072      -6.17406942      -0.71822120       0.45872171     -10.22467324       7.40109236      -0.03812385       0.31337977      -0.40800013       0.35548798      -0.03130989      -0.48083276      -0.03812385       0.31337977      -0.40800013      -0.01269210      -0.03541579      -0.03973824      -0.77225000      -0.06276000       0.02681000       0.13981000      -1.11231000       0.02474000      -0.00488000       0.13843000      -0.01892000
Se       5.05634164       7.88212973      11.92950101      -4.85952040       8.55801313      -5.50271254       6.90710662       0.49296382      -1.27858866      -0.04863434      -0.10472637      -0.02512893       6.90710662       0.49296382      -1.27858866       4.35857600     -10.02336113      -9.71330339       0.06449007      -0.23541093      -0.00078925      -0.04863434      -0.10472637      -0.02512893       0.06449007      -0.23541093      -0.00078925      -0.01915480       0.01177306      -0.76662608       0.57553000      -0.01368000      -0.00799000       0.07280000       0.68501000      -0.00173000      -0.05512000      -0.17857000       0.01081000
Se       5.16239385       7.86494582       8.61239529     -22.88212500      10.19643987      -5.43411793      10.04466579      -1.54719173       0.43428045      -0.06051220      -0.00116247       0.06553468      10.04466579      -1.54719173       0.43428045      -1.73235383      -5.99801839       0.47680266      -0.09149909       0.09493528       0.16975728      -0.06051220      -0.00116247       0.06553468      -0.09149909       0.09493528       0.16975728       0.02147510      -0.01291892       0.73954391       0.71318000      -0.06153000      -0.00254000      -0.00373000       0.62086000       0.00429000       0.26987000       0.04254000       0.02967000
27
Lattice="10.029532672329253 0.0 0.0 -5.014766336164627 8.685575294237134 0.0 0.0 0.0 20.033991512977682" Properties=species:S:1:pos:R:3:raman_tensor:R:27:born_effective_charge:R:9 susceptibility_tensor="_JSON [[-720.6360979303787, 3.0191672982399855, 0.3323121440082902], [3.0191454942205334, -721.1927531581999, 0.2627476004187486], [0.3323351979396854, 0.26274843369337736, -37.89577730795015]]" pbc="T T T"
W       -0.00982894       0.91820372       9.99803994      21.27083775       5.83358519      19.16955193      12.58340236      -3.11908702      -4.12310790       0.62175863       0.27828305       0.00929376      12.58340236      -3.11908702      -4.12310790      -3.63207874      61.02889760      17.57580995      -0.01924617       0.67216615       0.35082242       0.62175863       0.27828305       0.00929376      -0.01924617       0.67216615       0.35082242       0.01612962       0.02318257      -0.05126712      -1.56137000       0.11353000      -0.09540000      -0.40304000      -0.70843000      -0.07047000      -0.00870000       0.05894000      -0.04525000
Se       1.60452464       1.85064937      11.81308447      25.07053850       5.57095424     -11.33123880      -1.54796203       0.18719498      -1.36147312      -0.39705918      -0.18467760      -0.00784415      -1.54796203       0.18719498      -1.36147312      -1.24001360     -20.86897820     -11.48900406      -0.11370659      -0.10811167      -0.25529894      -0.39705918      -0.18467760      -0.00784415      -0.11370659      -0.10811167      -0.25529894      -0.06182896      -0.02029127      -0.98901537       0.60019000      -0.01409000      -0.03218000       0.16481000       0.36890000      -0.02187000       0.10353000       0.04462000       0.06235000
Se       1.60251873       1.87662586       8.41558027      25.02720246      13.59495743      21.10202242       2.85776895       8.36566807      -4.64061426       0.22097080      -0.07010136       0.32127519       2.85776895       8.36566807      -4.64061426      12.09202862      -4.72918170      22.26225292      -0.05978513       0.33796929       0.07983985       0.22097080      -0.07010136       0.32127519      -0.05978513       0.33796929       0.07983985       0.01021106       0.00879030       0.74443490       0.95495000       0.01850000      -0.02029000       0.03490000       0.73342000      -0.02616000      -0.32148000      -0.15392000       0.05403000
Mo      -1.62378134       3.86197185      10.00014614      41.78083902      -7.53831444     -14.56349987       0.04965972      13.29273032       5.24152093      -0.72063497       0.06530187       0.20011218       0.04965972      13.29273032       5.24152093       0.71957361      25.79312502      -2.97961046       0.09736761      -0.25142136       0.32060899      -0.72063497       0.06530187       0.20011218       0.09736761      -0.25142136       0.32060899      -0.01919901       0.00289917      -0.08303940      -1.54519000      -0.06528000      -0.09387000       0.37787000      -2.06057000      -0.05641000      -0.48671000       0.09896000      -0.11859000
Se      -0.07381736       4.91406983      11.72673019      -3.60889537      -4.45802855     -11.48027078       6.72401522      -2.22653966      -4.90208301       0.00519859       0.03102125      -0.27596270       6.72401522      -2.22653966      -4.90208301      -0.35533272     -26.03567127      -0.87525681      -0.24404815      -0.03442115      -0.33932157       0.00519859       0.03102125      -0.27596270      -0.24404815      -0.03442115      -0.33932157      -0.05040015      -0.03802510      -0.78175775       0.94425000       0.25175000      -0.01863000       0.17345000       1.05460000      -0.01368000       0.10474000      -0.24185000       0.09922000
S        0.10029533       4.77766818       8.50765138     -18.10887961      11.11401681       6.94637588      12.31961774     -11.12657056      -0.19962019       0.16648245      -0.10912046      -0.02162609      12.31961774     -11.12657056      -0.19962019     -10.26028695      13.00384439       9.71878096      -0.09384416       0.29997109       0.14222607       0.16648245      -0.10912046      -0.02162609      -0.09384416       0.29997109       0.14222607       0.03119706      -0.00842636       0.53829860       0.39462000      -0.04444000      -0.02851000       0.03998000       0.35364000      -0.00422000       0.29426000      -0.23641000      -0.01666000
W       -3.37523863       6.75769852       9.91429334     106.98897757      -3.03836993      17.04532128     -15.59413332      23.92396635      -4.85113243       0.58628012       0.13461965       0.79110989     -15.59413332      23.92396635      -4.85113243      34.98160619      56.14581907      15.69779796       0.18861324       0.36584410       0.30270733       0.58628012       0.13461965       0.79110989       0.18861324       0.36584410       0.30270733       0.02641950       0.00950037      -0.15068503      -0.80600000      -0.23019000      -0.08048000       0.26585000      -0.88841000      -0.01271000       0.09678000      -0.19869000      -0.03125000
S       -1.75968151       7.75834500      11.68701324     -11.03404950      -2.56586919      -4.25180889      11.85764395       4.56248919      -4.87972690      -0.07899394      -0.20254176      -0.30335901      11.85764395       4.56248919      -4.87972690      -3.71812859     -27.15360391       6.36302775      -0.09389810       0.32182412      -0.43832788      -0.07899394      -0.20254176      -0.30335901      -0.09389810       0.32182412      -0.43832788      -0.04635626      -0.04063276      -0.65366528       0.26143000       0.07256000      -0.03416000       0.12866000       0.23273000      -0.00463000       0.12658000       0.09454000       0.02521000
S       -1.71835983       7.84740725       8.59581098      -0.85737354      -9.57778015      -7.27612429      10.08005530       0.37975609       3.27441995      -0.39023001       0.02401678       0.09650640      10.08005530       0.37975609       3.27441995      -0.35294595     -36.77237624     -22.98337982      -0.03490062      -0.17754002      -0.00419043      -0.39023001       0.02401678       0.09650640      -0.03490062      -0.17754002      -0.00419043       0.02879955       0.02130982       0.39650696       0.72862000      -0.03053000      -0.03794000       0.10326000       0.85606000      -0.01754000      -0.30350000       0.32760000       0.02121000
Mo       3.30573397       0.89463431      10.13203450      -1.97429043      -7.91906436     -42.88511123      -4.60521966     -12.75491548       2.35367059      -0.83061825      -0.24729269       0.10424708      -4.60521966     -12.75491548       2.35367059      23.96133704      73.02654946     -33.14177042      -0.16688812      -0.55553335       0.90847504      -0.83061825      -0.24729269       0.10424708      -0.16688812      -0.55553335       0.90847504       0.01058743       0.08224342       0.14191740      -1.48754000       0.27435000      -0.00504000       0.37836000      -1.47309000      -0.02000000       0.32594000       0.34241000      -0.09835000
S        5.04926793       1.96779431      11.42233387       1.39804833      17.86614692      20.74243875      10.43051528       7.14059130       5.22965185      -0.01832888       0.23636220      -0.03161510      10.43051528       7.14059130       5.22965185       5.92412925       2.81198464       0.19204528       0.09170770      -0.03767854       0.34207281      -0.01832888       0.23636220      -0.03161510       0.09170770      -0.03767854       0.34207281       0.01801129       0.03142742      -0.38222070       0.57507000      -0.09522000       0.03810000      -0.31986000       0.92721000       0.00309000      -0.02997000      -0.31212000       0.02104000
Se       4.99932086       1.86318628       8.26012252     -11.50304246      14.94528165       3.92099094      12.97393537      -3.73455589       3.73924893       0.22928550      -0.01353447      -0.22559820      12.97393537      -3.73455589       3.73924893     -11.02079003       6.72600516      10.04733577       0.15757771       0.22393917       0.12769837       0.22928550      -0.01353447      -0.22559820       0.15757771       0.22393917       0.12769837      -0.03471281      -0.04483241       0.93656701       0.63680000       0.13117000       0.01596000      -0.00534000       0.57589000       0.01510000       0.08442000      -0.27853000       0.05816000
W        1.66921512       3.82696878      10.18719693     -17.45801226      10.88888652     -35.72849605       1.01127973      -3.25626169      -4.48322202      -0.46784908       0.13988564      -0.09388127       1.01127973      -3.25626169      -4.48322202      22.22948476      29.88219395     -41.66571120      -0.05761211      -0.59490082       0.21005731      -0.46784908       0.13988564      -0.09388127      -0.05761211      -0.59490082       0.21005731       0.00742258       0.00376902       0.12346519      -0.84235000      -0.05478000       0.01576000      -0.07163000      -1.37616000      -0.07466000       0.51165000       0.08579000      -0.03099000
Se       3.42297921       4.67456459      11.69965045      25.35359323      26.67746071       1.14753704      21.52750114       9.28568322       5.12167911      -0.19923526      -0.02313746       0.17535263      21.52750114       9.28568322       5.12167911       1.29286579      33.66482556      -6.14800662      -0.10623753      -0.33706955       0.39418090      -0.19923526      -0.02313746       0.17535263      -0.10623753      -0.33706955       0.39418090       0.01392150       0.00340126      -0.91264483       0.61750000      -0.18321000       0.01751000      -0.27655000       0.66359000      -0.00125000       0.02912000       0.39855000       0.06210000
S        3.23833551       4.87024077       8.50674873      10.64180474      13.42800249     -12.77158083      16.43201479       6.51102481       5.09929289      -0.26712284       0.08768380       0.01610949      16.43201479       6.51102481       5.09929289     -12.02761486     -17.78363463     -11.08356833       0.18737167      -0.30135725      -0.08643483      -0.26712284       0.08768380       0.01610949       0.18737167      -0.30135725      -0.08643483      -0.04683083      -0.00188343       0.43411064       0.55597000       0.20911000       0.02781000       0.09163000       0.75402000       0.01232000      -0.49590000       0.22265000       0.01324000
Mo      -0.09778794       6.79500839      10.13103154      57.45704361      -7.53708267     -29.18552668     -22.21478534      20.75035171      -0.39875688      -0.28651667      -0.07602054       0.59323025     -22.21478534      20.75035171      -0.39875688      29.44438222      27.43472680     -44.74629855      -0.10375762      -0.74177714      -0.22037903      -0.28651667      -0.07602054       0.59323025      -0.10375762      -0.74177714      -0.22037903       0.06614824       0.00750840       0.09868369      -1.61908000      -0.47576000      -0.01721000      -0.39106000      -1.63714000       0.03083000       0.15235000       0.02788000      -0.09876000
Se       1.63381087       7.68813827      11.73465352      15.56218880      25.91772234      -1.42882128      17.91386332       3.60852856      -0.20278654      -0.44809311      -0.16964496       0.15312924      17.91386332       3.60852856      -0.20278654       1.83770550      35.98895336     -11.61892394       0.00574283      -0.54179510       0.51107622      -0.44809311      -0.16964496       0.15312924       0.00574283      -0.54179510       0.51107622      -0.00349044       0.02627309      -0.93199916       0.72726000      -0.08276000       0.01705000      -0.00038000       0.88304000       0.02465000       0.36124000       0.29601000       0.05178000
Se       1.70843060       7.80056933       8.36242375     -13.84188985      -1.46654416       4.93398519       4.36627877       2.79118319       2.60821260       0.21708252       0.15562185      -0.12396876       4.36627877       2.79118319       2.60821260      -7.85535114     -21.74075823       5.78626506       0.05375783       0.20555168      -0.00744521       0.21708252       0.15562185      -0.12396876       0.05375783       0.20555168      -0.00744521      -0.01564951       0.00891840       0.79192094       0.92659000       0.07704000       0.01653000      -0.10007000       0.79724000       0.02274000       0.10846000       0.14469000       0.06213000
Mo       6.71978689       1.05089443       9.91399246     -31.57507997     -18.86338599      29.35835722     -40.54667020     -17.27535355      -4.41214687       0.99702074       0.05212128       0.03114271     -40.54667020     -17.27535355      -4.41214687     -22.90736798     -26.82312798      46.27478535       0.18138434       1.04052012      -0.86998533       0.99702074       0.05212128       0.03114271       0.18138434       1.04052012      -0.86998533       0.00670060      -0.02964255      -0.11715788      -1.11991000      -0.14845000       0.04698000       0.05015000      -1.18324000       0.05502000      -0.47819000       0.24954000      -0.06109000
Se       8.31137343       2.09486849      11.81779835      -7.28969362     -12.58031365     -36.73485904      -5.14803280       5.10036582       3.30628473      -0.51923045      -0.03483381       0.10148241      -5.14803280       5.10036582       3.30628473       6.93194665     -34.56904838     -28.40706366       0.04879821      -0.42679852      -0.04761543      -0.51923045      -0.03483381       0.10148241       0.04879821      -0.42679852      -0.04761543       0.02448641       0.02027021      -1.03182213       0.32726000       0.11048000       0.00109000       0.06148000       0.33171000      -0.01840000       0.14150000      -0.52474000      -0.00345000
Se       8.46773384       1.93439597       8.33093102     -19.10440103       9.31581718      18.37898400       9.28605199      -1.88854143       2.44233126       0.17787862       0.15572882      -0.23215958       9.28605199      -1.88854143       2.44233126       1.89780570      -1.20249064      13.73432698      -0.04130950      -0.05917374       0.05659895       0.17787862       0.15572882      -0.23215958      -0.04130950      -0.05917374       0.05659895      -0.00112607       0.00405791       0.79551800       0.82891000      -0.15519000       0.00351000      -0.15367000       0.88267000      -0.01178000       0.26423000      -0.10471000       0.08351000
Mo       4.99119693       3.95163587       9.83536092     -19.84702263     -85.56314342      39.79639512     -58.07668049      -2.80584400       2.39460469       0.93616002      -0.15345510      -0.21201711     -58.07668049      -2.80584400       2.39460469       3.89816297     -77.59043824      39.68354469      -0.19219908       0.53537008      -0.80707393       0.93616002      -0.15345510      -0.21201711      -0.19219908       0.53537008      -0.80707393       0.02265641      -0.04350936      -0.08657642      -1.24196000       0.22074000       0.04870000      -0.46707000      -1.49092000       0.00146000      -0.07810000      -0.43821000      -0.09869000
Se       6.84625930       4.80544999      11.47859955     -52.49043241      17.13548763       1.79097218      11.63170333     -18.21606176      -1.82226578       0.14498477      -0.00331813      -0.19763072      11.63170333     -18.21606176      -1.82226578     -27.25164148       2.54671412      -4.03562086       0.21087685      -0.29464306      -0.01367100       0.14498477      -0.00331813      -0.19763072       0.21087685      -0.29464306      -0.01367100       0.02039720      -0.02392938      -0.50503921       1.17322000      -0.06053000      -0.00167000       0.02916000       1.16143000       0.01167000      -0.39283000       0.26993000       0.05601000
Se       6.75047726       4.80986298       8.22852949      -1.90912909      21.27446753       0.63566136      11.74217186       3.83738777      -0.97684612       0.23966724       0.00898207      -0.04423163      11.74217186       3.83738777      -0.97684612       2.38472700       5.37585430       3.65903485      -0.07105369       0.23680368      -0.12896800       0.23966724       0.00898207      -0.04423163      -0.07105369       0.23680368      -0.12896800      -0.00244142      -0.03593290       1.02954775       0.35678000      -0.00252000       0.00989000      -0.09510000       0.57879000       0.00199000       0.23890000      -0.13973000       0.05702000
Mo       3.34785801       6.78758653      10.00987479     -63.78012127     -47.74612418       5.93294462     -36.76904735     -18.94658731      -1.81961257      -0.38557429      -0.15663314      -0.19727286     -36.76904735     -18.94658731      -1.81961257     -17.86356247     -18.63258368      10.22429662       0.03045857      -0.04872825      -0.33691875      -0.38557429      -0.15663314      -0.19727286       0.03045857      -0.04872825      -0.33691875      -0.00132297      -0.01653430       0.16198888      -1.68630000       0.45026000       0.05865000       0.38758000      -1.52662000       0.04784000      -0.12830000      -0.15015000      -0.11091000
S        5.13301453       7.71461624      11.45904196     -31.73897316      11.35428850      12.17612363       7.66694439      -5.77924421      -3.17735107       0.39493235       0.14409243      -0.12177199       7.66694439      -5.77924421      -3.17735107     -12.37753942     -32.10520404      12.31359645       0.13180526       0.16928332      -0.10993182       0.39493235       0.14409243      -0.12177199       0.13180526       0.16928332      -0.10993182       0.01351160       0.02316445      -0.37110104       0.66033000      -0.10083000       0.02302000       0.01352000       0.57520000       0.02368000      -0.44630000      -0.07416000       0.00088000
Se       5.08346863       7.75834500       8.31016989     -24.44600568       3.94812181       4.39979917       4.30220636      -9.07291416       2.53395753       0.09382988      -0.07080719      -0.58729477       4.30220636      -9.07291416       2.53395753     -15.23023243     -30.87126164       6.26706923       0.00854126       0.10371451      -0.13157280       0.09382988      -0.07080719      -0.58729477       0.00854126       0.10371451      -0.13157280      -0.02983946       0.02058758       0.85926313       0.62663000      -0.18415000       0.00802000      -0.00802000       0.60376000       0.00821000       0.22988000       0.25447000       0.07895000
27
Lattice="9.57270457190181 0.0 0.0 -4.786352285950905 8.289962159266967 0.0 -0.0 0.0 19.25070889409454" Properties=species:S:1:pos:R:3:raman_tensor:R:27:born_effective_charge:R:9 susceptibility_tensor="_JSON [[-566.1456375114025, -2.826849484260534, 0.009158426399402026], [-2.826904919880606, -552.198218949414, 0.20235557413876495], [0.01115192047383482, 0.20495545609240684, -32.928164213417624]]" pbc="T T T"
W        0.01273170       0.82162523       9.70901989     -32.77107168       5.66771708     -39.56363660     -15.64935261     -11.66946108      -1.08955706      -1.44024258       0.20702687      -0.35050102     -15.64935261     -11.66946108      -1.08955706     -22.62013661      82.94006432     -40.51043731       0.02269701      -1.06688059       0.78604632      -1.44024258       0.20702687      -0.35050102       0.02269701      -1.06688059       0.78604632      -0.03731187       0.06128811      -0.12536952      -0.23786000      -0.16004000       0.01409000      -0.03586000      -0.06859000       0.02918000       0.28405000       0.57956000       0.02222000
S        1.51449759       1.87883473      11.19326773      15.14009002       6.61741983      -3.24190608       4.13438797       1.43563615       3.33401927       0.07700018       0.04233881       0.16851560       4.13438797       1.43563615       3.33401927      14.12680130     -29.03041804       0.38700793       0.01161083      -0.07820797      -0.41519214       0.07700018       0.04233881       0.16851560       0.01161083      -0.07820797      -0.41519214       0.06870324       0.02550439      -0.65795244       0.02436000      -0.14546000       0.00168000      -0.20149000       0.24302000      -0.00771000       0.06977000      -0.45702000       0.00339000
S        1.53574899       1.94785393       7.95032260       1.86165191       4.06605326      14.72531110       5.99657757      -2.41790885       2.86627281      -0.15652672       0.08702452       0.09262952       5.99657757      -2.41790885       2.86627281      -1.81456465     -24.51908613      17.33660971       0.12427372       0.26523465      -0.02195381      -0.15652672       0.08702452       0.09262952       0.12427372       0.26523465      -0.02195381      -0.02386845       0.01424190       0.78030020       0.11548000       0.25296000      -0.00827000       0.23131000       0.02862000       0.01250000      -0.22406000       0.51634000      -0.01108000
W       -1.57968771       3.72627098       9.59749788       9.88158101     -46.99726914     -23.98081223     -34.65639182       7.45721502       3.99189055      -0.41550900       0.24429450       0.63158366     -34.65639182       7.45721502       3.99189055      11.87547994     -19.57806470     -29.99493382       0.07971748      -0.99351397      -0.51608778      -0.41550900       0.24429450       0.63158366       0.07971748      -0.99351397      -0.51608778       0.02277857      -0.02442437      -0.21757647      -0.75286000      -0.11022000      -0.00915000       0.28827000      -0.82936000       0.05669000       0.04058000       0.53849000      -0.01088000
S       -0.11755281       4.58992039      11.28382551      36.97625873      16.76267570     -10.53473013      15.55206675       4.78554614       4.49966634      -0.19330841      -0.16342103       0.23819746      15.55206675       4.78554614       4.49966634       9.83922855      13.10106652      -6.47023531      -0.08462357       0.07770361       0.27079798      -0.19330841      -0.16342103       0.23819746      -0.08462357       0.07770361       0.27079798      -0.00331275       0.01089283      -0.73467650       0.06076000      -0.02905000      -0.00733000      -0.01782000      -0.07522000      -0.00395000       0.65295000       0.24486000      -0.00540000
S        0.27511953       4.70709029       8.19567102     -19.92780361      18.23880249      -0.69876240      19.80530459     -11.73039517       3.56012059      -0.16677531       0.08221841      -0.18029531      19.80530459     -11.73039517       3.56012059     -15.77827628       5.01473583      -4.47934693       0.01482960      -0.08083383       0.31515055      -0.16677531       0.08221841      -0.18029531       0.01482960      -0.08083383       0.31515055       0.00930391       0.00637121       0.46326513       0.67930000       0.11020000      -0.01102000       0.09806000       0.69022000       0.00774000       0.45817000       0.06147000       0.01742000
W       -3.10232210       6.41648815       9.71275324     -88.69861619     -55.81862517     -34.79813126     -14.57481604     -22.95864626       2.74897576      -0.38593617      -0.28504270      -0.84268638     -14.57481604     -22.95864626       2.74897576     -22.96263583     -17.60952298     -24.97815435       0.22726203      -0.31591521       0.27186181      -0.38593617      -0.28504270      -0.84268638       0.22726203      -0.31591521       0.27186181      -0.03802673      -0.02373611      -0.08204235      -0.62931000       0.12687000       0.02778000       0.41736000      -1.14996000      -0.04609000       0.83058000      -0.16321000      -0.03881000
S       -1.55537304       7.43856581      11.24553470      -7.99191457      13.35131249     -13.66873845       5.53817854      -5.87284450       2.63119777       0.12938849       0.23344425       0.07165267       5.53817854      -5.87284450       2.63119777     -10.77417452      -7.57213341     -19.99695797      -0.12500265       0.04976823       0.13636679       0.12938849       0.23344425       0.07165267      -0.12500265       0.04976823       0.13636679       0.03297083       0.05131156      -0.67999142      -0.02423000      -0.00591000       0.00220000      -0.02766000       0.45484000      -0.00142000      -0.32058000      -0.21000000       0.01397000
S       -1.46519816       7.40333826       8.07658657     -23.67852524       4.77189603      15.20820703      12.86626344       1.83428927       1.19403398       0.09372540      -0.14664643       0.05879271      12.86626344       1.83428927       1.19403398     -11.43009675     -20.56762603       8.10696173       0.15150738      -0.26530667       0.03123697       0.09372540      -0.14664643       0.05879271       0.15150738      -0.26530667       0.03123697       0.03254112      -0.01527540       0.59915268       0.82731000       0.11531000      -0.01233000       0.07597000       0.20700000      -0.01603000       0.31759000      -0.09275000       0.01037000
W        3.11984015       0.90806676       9.47219117       3.54481570      -5.18268622      38.40970928      -6.41629197       4.35002947      -5.14418826       1.01623000      -0.01090980       0.28082664      -6.41629197       4.35002947      -5.14418826      -1.38256696      69.83739264      43.13203799      -0.08038399       1.28480013       0.13306834       1.01623000      -0.01090980       0.28082664      -0.08038399       1.28480013       0.13306834       0.03741667       0.01138372       0.15466476      -0.63826000      -0.28706000       0.03620000      -0.32722000      -0.36107000       0.02998000      -0.00216000       0.08913000      -0.01553000
S        4.66707639       1.64564364      11.20934987      14.28610755      23.38846452     -19.97038770       8.90684828       9.67799032       0.08264015      -0.39203404       0.00762706       0.21545614       8.90684828       9.67799032       0.08264015      11.28782493      20.00789429     -25.05477305       0.15046779      -0.57716484       0.10416823      -0.39203404       0.00762706       0.21545614       0.15046779      -0.57716484       0.10416823      -0.02864709      -0.00313086      -0.69589327       0.18866000       0.19756000       0.00774000       0.07301000       0.25359000      -0.00433000       0.47389000       0.33982000      -0.01381000
S        4.73207505       1.78148032       7.96697911       7.65013311      16.13560431      11.80125949       7.22064454      -0.17454832      -2.23518728      -0.16469237       0.05959631      -0.02885087       7.22064454      -0.17454832      -2.23518728       4.44238170       4.77102702      14.83427963      -0.15087064      -0.08022636       0.03425309      -0.16469237       0.05959631      -0.02885087      -0.15087064      -0.08022636       0.03425309       0.02171293      -0.02986584       0.64460646       0.39673000      -0.05888000      -0.00007000      -0.18695000       0.33360000       0.00477000      -0.04634000      -0.22896000       0.02807000
W        1.66143861       3.73507787       9.67867441     -38.34281991     -59.40729176      10.26983296     -23.49506430      -2.95313989      -3.68280836       0.43438798      -0.27374758      -0.43258686     -23.49506430      -2.95313989      -3.68280836      -9.76951761     -44.52393982       0.30937306      -0.15590037       0.21752665      -0.69494017       0.43438798      -0.27374758      -0.43258686      -0.15590037       0.21752665      -0.69494017      -0.04191780      -0.05021338       0.11088187      -0.13546000       0.03101000       0.00397000      -0.32924000      -0.50735000      -0.00885000      -0.29834000      -0.33126000       0.00615000
S        3.31598486       4.51649774      11.30421537     -13.66954598      10.29761738     -10.57380207       8.85274104      -9.91112294      -3.95224071       0.05099831       0.45707674      -0.06606803       8.85274104      -9.91112294      -3.95224071     -16.07538794       5.22928491     -26.93299235       0.06928479      -0.39940777       0.48768886       0.05099831       0.45707674      -0.06606803       0.06928479      -0.39940777       0.48768886       0.01943440       0.02136110      -0.79057511       0.18733000      -0.11868000       0.00117000      -0.19354000       0.24394000       0.00671000      -0.56445000      -0.04884000      -0.00562000
S        3.17861655       4.46968722       8.09467899      -4.17259693      24.99158856       3.61573017      16.20466242      -1.26261130       2.84876743      -0.04104901      -0.28774683      -0.03399470      16.20466242      -1.26261130       2.84876743      -1.80209217      18.67233643      12.26518265       0.15804811      -0.07437914       0.20214479      -0.04104901      -0.28774683      -0.03399470       0.15804811      -0.07437914       0.20214479      -0.01572256       0.01275246       0.55175458       0.60705000       0.14026000       0.01483000      -0.15562000       0.42885000       0.00644000       0.43286000      -0.14975000       0.02977000
W        0.04805498       6.59166864       9.72270885     -31.32766621     -43.49834147     -12.31048424     -46.34691739      -4.36688028       2.17380895      -0.46371041       0.25469300      -0.07702763     -46.34691739      -4.36688028       2.17380895      -9.27803319     -42.82273647     -13.16792665      -0.11174794      -0.18338656      -0.59973458      -0.46371041       0.25469300      -0.07702763      -0.11174794      -0.18338656      -0.59973458      -0.01188347      -0.01903004       0.00746833      -0.97391000      -0.58977000      -0.01354000      -0.46251000      -0.07516000      -0.04013000      -0.52586000      -0.19786000      -0.03455000
S        1.55250123       7.38706466      11.38711500       0.70711200      11.83052915     -37.58942310       9.71118240       2.88478901      -2.64255815       0.02646490      -0.03379951       0.18322971       9.71118240       2.88478901      -2.64255815      10.48678539       4.06397980     -37.23423776       0.10798359      -0.31355596       0.46377219       0.02646490      -0.03379951       0.18322971       0.10798359      -0.31355596       0.46377219       0.00832153       0.03160695      -0.87516482       0.01448000      -0.02574000       0.00105000      -0.02435000       0.14958000       0.00914000       0.06025000       0.00932000      -0.00752000
S        1.50234026       7.49370459       7.87173070      14.55298969      -7.93267263      43.11378277       3.53323031       3.40696700       2.04386401       0.08962607       0.28526784      -0.36265778       3.53323031       3.40696700       2.04386401       5.70133943     -18.71632541      44.74459752       0.06967614       0.24937966      -0.17662079       0.08962607       0.28526784      -0.36265778       0.06967614       0.24937966      -0.17662079      -0.02496951       0.02727860       0.85211839      -0.13926000       0.13036000      -0.00329000       0.17705000       0.12851000       0.00234000      -0.25058000       0.23712000      -0.00639000
W        6.36728445       0.89964278       9.55288907       0.40580192     -12.84929768      -4.53434592     -11.04936377      -9.94425781      -7.37303443       0.13833681      -0.36955819      -0.59056995     -11.04936377      -9.94425781      -7.37303443      -2.16743564      48.28195106       0.31525550      -0.12146949       0.01215446       0.02129355       0.13833681      -0.36955819      -0.59056995      -0.12146949       0.01215446       0.02129355      -0.00817146      -0.02458456       0.01098275       0.18944000       0.05768000      -0.03484000       0.42774000      -1.00634000       0.04200000      -0.27203000       0.19533000       0.00212000
S        7.90494798       1.81230443      10.98046651       1.69233792      17.29136319      19.16787506      13.52999913       3.71876231       5.73219715       0.54851435      -0.01193480       0.20477849      13.52999913       3.71876231       5.73219715       2.33370525     -18.09516210      24.10886579       0.07957487       0.46872244      -0.04569927       0.54851435      -0.01193480       0.20477849       0.07957487       0.46872244      -0.04569927      -0.02282346       0.01567555      -0.32901375       0.70588000       0.02448000      -0.00899000       0.05161000       0.99665000      -0.00888000      -0.04009000      -0.43789000       0.02209000
S        7.92897547       1.73514843       7.86148790       4.12081554      11.56668435      19.02259868      10.62160500       3.93123971      -3.78610131       0.29582141      -0.07871977       0.06837420      10.62160500       3.93123971      -3.78610131      13.12655366       8.03793187      19.64442727      -0.05308942       0.44569607      -0.16566295       0.29582141      -0.07871977       0.06837420      -0.05308942       0.44569607      -0.16566295       0.00815414      -0.04692101       0.93595525       0.04324000      -0.06883000      -0.00022000      -0.11529000      -0.09645000       0.00766000       0.06471000      -0.34621000      -0.03477000
W        4.85527576       3.65782614       9.57720374     -34.85436743      11.68472145      32.92364832     -11.19668069     -15.64272435       4.02782244       0.66222569      -0.00306239      -0.74853504     -11.19668069     -15.64272435       4.02782244     -22.82752834      11.17334059      23.21555453      -0.13633717       0.71202901      -0.50279673       0.66222569      -0.00306239      -0.74853504      -0.13633717       0.71202901      -0.50279673      -0.02636924       0.01176830       0.11603397      -1.19493000       0.44323000      -0.01740000      -0.03732000      -1.19231000      -0.01539000      -0.12550000      -0.19977000      -0.02174000
S        6.56496080       4.54196114      11.15842308     -18.88560240      11.80085674      -0.75160810      13.47975331       0.21380127      -1.93431110       0.29658512      -0.04146100      -0.27667613      13.47975331       0.21380127      -1.93431110      -7.16415143     -15.94094541      -3.13479508       0.00708995       0.19660380       0.13755977       0.29658512      -0.04146100      -0.27667613       0.00708995       0.19660380       0.13755977      -0.00634284      -0.01170593      -0.54724236       0.68956000      -0.11740000       0.00726000      -0.01827000       0.43009000      -0.00018000      -0.19568000      -0.04006000       0.02985000
S        6.21258954       4.62687103       8.01579990      49.71057137      17.44994542      -5.26421665       9.72805304      12.16306652      -7.16163818      -0.23893848       0.00460769       0.50967383       9.72805304      12.16306652      -7.16163818      24.75133455     -11.22910431       4.95916505      -0.13597397       0.04005238       0.09770054      -0.23893848       0.00460769       0.50967383      -0.13597397       0.04005238       0.09770054       0.01343142       0.00595479       0.71770771       0.12391000      -0.15604000       0.01227000      -0.00061000       0.46906000       0.00311000      -0.69907000       0.28388000       0.01916000
W        3.06355264       6.48483726       9.63511861     128.08457191     -41.21424049       1.57785574     -30.94995044      37.88749940      -2.81926495       0.04244467       0.07839347       1.26913104     -30.94995044      37.88749940      -2.81926495      22.36473125     -72.75972383      14.33484111       0.02004086       0.18506147      -0.71891829       0.04244467       0.07839347       1.26913104       0.02004086       0.18506147      -0.71891829       0.05622003      -0.05322551       0.01868729      -0.99230000       0.42698000      -0.00512000       0.24598000      -0.36449000      -0.05545000      -0.31440000      -0.41396000      -0.01701000
S        4.69435860       7.13147345      11.27224254      10.86727219      31.47431799       2.58639121      19.14172693       4.03292249       1.36379608      -0.16912907      -0.31167600       0.03910506      19.14172693       4.03292249       1.36379608      11.20843761      35.86196461      -5.57585890       0.06375203       0.05920603       0.18018716      -0.16912907      -0.31167600       0.03910506       0.06375203       0.05920603       0.18018716      -0.03799925      -0.02903119      -0.70512810       0.55446000       0.05295000      -0.00843000       0.19420000       0.32865000       0.00231000       0.39637000       0.80680000       0.02061000
S        4.68631752       7.22729622       8.07457631      14.81504352      15.81703159       4.90933192      10.26785000       1.87340296      -1.15563477       0.33446693      -0.01926795       0.18002760      10.26785000       1.87340296      -1.15563477      13.34674956      15.00476687       9.71722933      -0.19883795       0.16492651      -0.08486413       0.33446693      -0.01926795       0.18002760      -0.19883795       0.16492651      -0.08486413      -0.00474269       0.01500887       0.64228509       0.31041000      -0.23681000       0.00976000      -0.14681000       0.34009000      -0.01215000      -0.20265000      -0.58457000      -0.00207000
27
Lattice="9.60442345377052 0.0 0.0 -4.80221172688526 8.31743071096527 0.0 -0.0 0.0 19.64296684765147" Properties=species:S:1:pos:R:3:raman_tensor:R:27:born_effective_charge:R:9 susceptibility_tensor="_JSON [[-555.2145277812085, -1.0562085486900374, 0.048905415233104356], [-1.0563566443733536, -551.362868735469, -0.03644439969390759], [0.024736599299536425, -0.02052798470384651, -34.23229721935141]]" pbc="T T T"
W       -0.00585870       0.91482133       9.82109925      -0.78756868      -6.69201967       2.79578304      -5.43084108      -1.39783421      -0.50718615      -0.21136889      -0.05538297      -0.14885692      -5.43084108      -1.39783421      -0.50718615       5.73036792      24.10021351      -0.47375850      -0.02019838      -0.01879011       0.13454729      -0.21136889      -0.05538297      -0.14885692      -0.02019838      -0.01879011       0.13454729      -0.00298734       0.01595760       0.01777475      -0.92522000      -0.26048000       0.00818000       0.00376000      -0.74797000       0.02139000      -0.00677000      -0.06585000      -0.01856000
Se       1.58444174       1.85125262      11.53913851       4.40046299       3.05496819     -21.64824092       5.08384729       1.69836363      -0.48062108      -0.25286241      -0.08267015       0.04765555       5.08384729       1.69836363      -0.48062108       2.71783710      -8.06186517     -22.44661271      -0.05884497      -0.32403297       0.10248259      -0.25286241      -0.08267015       0.04765555      -0.05884497      -0.32403297       0.10248259       0.00294524       0.03285618      -0.86919742       0.80480000      -0.01751000      -0.00391000      -0.11190000       0.67479000       0.01132000       0.03491000       0.03385000       0.04945000
S        1.52854399       1.85912825       8.19996861      12.74982873       8.91580492      12.87815850       5.43182463       2.75461175      -0.43155205       0.02455465       0.13373143       0.09956837       5.43182463       2.75461175      -0.43155205       4.21779375      -4.66173399      16.13868151       0.12063506       0.06163733       0.04165344       0.02455465       0.13373143       0.09956837       0.12063506       0.06163733       0.04165344      -0.01342542      -0.00204992       0.61526112       0.27749000       0.14888000       0.00189000       0.15789000       0.42939000       0.01011000      -0.21668000       0.01622000       0.01130000
W       -1.63428869       3.66869767       9.85308198      15.59250680      -7.00672945       1.96073629      -0.60224015      10.70114383      -0.10554961       0.07630189      -0.00265463       0.34054250      -0.60224015      10.70114383      -0.10554961       2.66853931      31.20228799       1.86227023      -0.02093345      -0.06885944       0.25408241       0.07630189      -0.00265463       0.34054250      -0.02093345      -0.06885944       0.25408241       0.04018226       0.00325490       0.07346303      -0.69550000       0.12017000       0.01040000      -0.35100000      -0.88475000      -0.00569000       0.03196000       0.03338000      -0.04224000
Se      -0.03150251       4.64988557      11.58984987       3.53632373       7.90809486     -23.16848783       6.25045308       0.09706601      -1.86581309      -0.37408927       0.01247049       0.09204521       6.25045308       0.09706601      -1.86581309      -0.97180405       0.53718897     -22.35556404      -0.04925023      -0.33124065      -0.03386024      -0.37408927       0.01247049       0.09204521      -0.04925023      -0.33124065      -0.03386024       0.00866495      -0.04369623      -0.97663224       0.50731000      -0.01044000       0.00887000      -0.03561000       0.54693000      -0.00453000       0.07902000       0.06705000       0.04412000
S       -0.01767214       4.57218579       8.28208643      -6.58750311      12.90433119       4.77364129       8.15020068      -1.05299119       0.62298025      -0.06881640       0.03785763      -0.12628984       8.15020068      -1.05299119       0.62298025      -4.70164516       0.07997527       6.95811639       0.07653442      -0.02157879       0.01925362      -0.06881640       0.03785763      -0.12628984       0.07653442      -0.02157879       0.01925362       0.00128241      -0.00252181       0.52843085       0.46958000       0.03170000       0.00095000      -0.03666000       0.38818000      -0.00404000      -0.07735000      -0.07112000       0.01177000
Mo      -3.16158411       6.49393487       9.77394153       1.73133982     -30.57395272       1.24078138     -25.57225477      -0.45240694      -0.52268662       0.11893938      -0.11791751      -0.06905569     -25.57225477      -0.45240694      -0.52268662       1.33323968      -2.41515085      -0.05472808      -0.12344053       0.07199577      -0.36538838       0.11893938      -0.11791751      -0.06905569      -0.12344053       0.07199577      -0.36538838      -0.02790824      -0.02540692      -0.04193545      -1.73140000      -0.02769000      -0.01229000       0.33916000      -1.60759000      -0.00670000      -0.05200000      -0.09450000      -0.11142000
S       -1.60672400       7.44928687      11.35809513      -3.71056813       8.09507721      -7.18901842       9.89139745      -4.68767730       2.73974982      -0.00079440       0.18243315      -0.09780227       9.89139745      -4.68767730       2.73974982      -0.79432747      -9.40095439      -6.95575115       0.09723341       0.03064753       0.03010864      -0.00079440       0.18243315      -0.09780227       0.09723341       0.03064753       0.03010864       0.00707452       0.01980528      -0.51596175       0.59871000      -0.08454000      -0.00110000       0.00018000       0.72372000      -0.00318000      -0.09115000      -0.07441000       0.02638000
S       -1.59020439       7.40779577       8.24462918       2.64701713      10.04831645       3.88894338      12.22016935      -1.66150243      -0.66553719      -0.06452129      -0.17308914      -0.03943956      12.22016935      -1.66150243      -0.66553719       0.87082112      -1.28039900       5.18025983      -0.02792953      -0.03285212       0.23392985      -0.06452129      -0.17308914      -0.03943956      -0.02792953      -0.03285212       0.23392985      -0.02003627       0.00752495       0.58856999       0.60403000       0.01286000      -0.00706000       0.04480000       0.47096000      -0.00080000       0.04917000       0.02383000       0.02397000
Mo       3.18549913       0.95708080       9.81264735      11.06313539     -22.83646216      11.86808035     -21.69476775       6.96001675       1.88887882       0.28825580      -0.00405925       0.23757818     -21.69476775       6.96001675       1.88887882       2.31849663       1.09123234       7.71693930      -0.00293421       0.18130755      -0.24074707       0.28825580      -0.00405925       0.23757818      -0.00293421       0.18130755      -0.24074707       0.00550387      -0.00380575       0.06123504      -1.73270000       0.30947000      -0.01409000      -0.15924000      -1.38682000       0.02021000      -0.09410000       0.05059000      -0.09046000
Se       4.80278799       1.88131447      11.54077127      -0.05970988       2.00917747     -24.10081805       1.96345142       1.87792393       0.16927883      -0.40643912      -0.00990369       0.00495720       1.96345142       1.87792393       0.16927883       1.66720649     -13.37298948     -21.69763292       0.08637880      -0.34505934      -0.07309158      -0.40643912      -0.00990369       0.00495720       0.08637880      -0.34505934      -0.07309158       0.00451468      -0.00176538      -0.89377515       0.95870000      -0.05115000      -0.00205000      -0.02616000       0.68339000       0.01697000       0.01184000       0.00046000       0.05263000
S        4.79424006       1.75107848       8.27228992       6.31084232      15.86751598       0.09209694       7.75375769       3.66472389      -0.12585640      -0.04599212       0.01563741       0.09537829       7.75375769       3.66472389      -0.12585640       4.69393892       4.34482523       7.18287807      -0.08373894       0.13271520       0.13850879      -0.04599212       0.01563741       0.09537829      -0.08373894       0.13271520       0.13850879      -0.00145092       0.02006581       0.55987370       0.52757000      -0.03412000       0.00573000      -0.03908000       0.66872000       0.00152000      -0.02916000      -0.19679000       0.02158000
W        1.57637402       3.71182153       9.79843281      -0.62562491     -22.58617793      11.52505376     -14.01222701      -0.13873639      -0.50071732       0.56414879       0.05541665      -0.01537175     -14.01222701      -0.13873639      -0.50071732       1.57670046      -3.27520155       7.04531784       0.01966886       0.20402818      -0.23633594       0.56414879       0.05541665      -0.01537175       0.01966886       0.20402818      -0.23633594      -0.00004859      -0.01275565       0.01328263      -0.84193000      -0.16464000       0.01126000      -0.02592000      -0.81882000      -0.01500000       0.10960000      -0.09133000      -0.03678000
S        3.19808092       4.62491407      11.39295919       3.84698858      10.44121793     -10.44511413      10.30542125      -2.02648040       0.16763351      -0.06381473       0.03457780       0.05524674      10.30542125      -2.02648040       0.16763351       2.22807412      -0.51342309     -11.30629599      -0.04255897       0.04590263       0.01985198      -0.06381473       0.03457780       0.05524674      -0.04255897       0.04590263       0.01985198      -0.01427817      -0.04010832      -0.54793221       0.36600000       0.02412000      -0.00406000       0.03273000       0.27930000      -0.00023000      -0.07912000       0.13408000       0.00280000
Se       3.17503031       4.60801028       8.02459184       1.15325733       5.33965555      20.88982576       3.30881212      -1.64453690      -1.41539924       0.29514507      -0.10759070      -0.01181688       3.30881212      -1.64453690      -1.41539924       1.25549906     -10.75430907      23.38599734      -0.00491308       0.50065880      -0.08631394       0.29514507      -0.10759070      -0.01181688      -0.00491308       0.50065880      -0.08631394       0.01204153       0.04364604       1.06091961       0.31520000       0.04917000      -0.00388000       0.06990000       0.61171000       0.00241000      -0.00307000       0.14392000       0.04889000
W        0.00691518       6.49892917       9.81091856     -10.33217409      -5.18026589       4.92563022     -19.44028406      -4.65926974      -0.56366407      -0.00641723      -0.01214176      -0.09030525     -19.44028406      -4.65926974      -0.56366407      -6.70920214       9.00533880       6.09619589       0.04875205       0.17112294      -0.03799096      -0.00641723      -0.01214176      -0.09030525       0.04875205       0.17112294      -0.03799096      -0.00156393      -0.02552098       0.06168961      -0.63867000       0.07665000       0.01519000      -0.11604000      -1.02012000      -0.01580000       0.00268000      -0.01649000      -0.03367000
S        1.61411941       7.37907854      11.38335477       5.32547321       8.40453540      -9.50052123      11.09038115       3.42928210      -1.57384243       0.09751267      -0.09375766       0.08959763      11.09038115       3.42928210      -1.57384243       0.55015768      -6.08595587      -7.72436230      -0.06111228       0.03806691       0.03885474       0.09751267      -0.09375766       0.08959763      -0.06111228       0.03806691       0.03885474      -0.01424147       0.01945712      -0.53791970       0.47177000       0.07517000       0.00728000       0.06919000       0.60990000      -0.00801000       0.06536000       0.00578000       0.01627000
S        1.63025484       7.39703881       8.21351085      -4.44340136       7.92466504      10.05707934      10.50514606      -1.60113177      -0.54109602       0.06518246       0.05112550      -0.03058584      10.50514606      -1.60113177      -0.54109602      -4.07158335      -4.08464039       9.26005339      -0.05695469      -0.07046457       0.01684919       0.06518246       0.05112550      -0.03058584      -0.05695469      -0.07046457       0.01684919       0.02849272      -0.02644841       0.61159324       0.48002000      -0.16096000       0.00429000      -0.08824000       0.36563000       0.00094000       0.00332000      -0.04447000       0.01324000
Mo       6.44447209       0.88447136       9.81168691     -29.57276920     -16.94824882      15.93396943      -6.91813782     -12.72733585      -0.26622122       0.50458697       0.07043480      -0.50052187      -6.91813782     -12.72733585      -0.26622122     -15.39113003      32.23305197      12.91566179       0.00741691       0.51964221       0.31416606       0.50458697       0.07043480      -0.50052187       0.00741691       0.51964221       0.31416606      -0.02151941       0.02818476       0.05740013      -1.59665000      -0.14498000       0.00386000       0.10201000      -1.33921000       0.01231000       0.06980000       0.09088000      -0.10136000
Se       7.98982383       1.83723016      11.56295748      -1.40006934      -0.70736555     -26.04692934       1.00350921      -2.81135136       1.54360549      -0.24531529       0.13444766      -0.01871496       1.00350921      -2.81135136       1.54360549      -0.40465719     -17.29839039     -21.35677172      -0.00630719      -0.27906624      -0.20650567      -0.24531529       0.13444766      -0.01871496      -0.00630719      -0.27906624      -0.20650567      -0.00232406       0.01780394      -0.89371561       0.85209000       0.09405000       0.00529000       0.09478000       0.63077000       0.00143000      -0.05874000      -0.09808000       0.05231000
S        8.00826432       1.86412255       8.22945419      -7.37281018       5.92608928      16.04991034       3.69370568      -1.92272590      -1.29429821       0.01333012      -0.15925862       0.00647104       3.69370568      -1.92272590      -1.29429821      -0.88392059     -12.93648345      12.98679701      -0.06009369       0.05529593      -0.09706046       0.01333012      -0.15925862       0.00647104      -0.06009369       0.05529593      -0.09706046       0.02268693      -0.00120547       0.60385874       0.34401000      -0.04704000      -0.00422000      -0.08048000       0.41504000      -0.00152000       0.13035000       0.11763000       0.00569000
W        4.84283844       3.69991205       9.80611635     -12.25811780     -14.05878314       1.14463886     -19.64643157      -4.88078729       0.63819919       0.05666265      -0.05546669      -0.18386576     -19.64643157      -4.88078729       0.63819919      -7.56525183       4.29187042      -8.01556177      -0.01891587      -0.34317011      -0.17957153       0.05666265      -0.05546669      -0.18386576      -0.01891587      -0.34317011      -0.17957153      -0.03129939      -0.00361026      -0.04324801      -0.81227000       0.01389000      -0.02010000       0.52047000      -0.68064000      -0.01971000       0.04528000       0.00234000      -0.01440000
S        6.41354585       4.66669331      11.38604400      -6.86511610       9.23951904     -10.82338115      11.13201256      -0.05706343       0.69295171      -0.05930525       0.00100650      -0.13158286      11.13201256      -0.05706343       0.69295171       1.16665445      -3.90531356      -7.95416543       0.12512682       0.13663325       0.08619113      -0.05930525       0.00100650      -0.13158286       0.12512682       0.13663325       0.08619113       0.01358192      -0.02327123      -0.54310958       0.45968000      -0.05369000      -0.00668000      -0.04016000       0.47515000      -0.00895000      -0.02944000      -0.05644000       0.01606000
S        6.45426861       4.56728753       8.22129043       2.35795196      10.78254684       8.46136968      10.54932533       0.91865374       0.72682955      -0.04408679       0.04593130       0.01770966      10.54932533       0.91865374       0.72682955       2.09148618      -3.04738907      10.52393581      -0.09031872      -0.02080438       0.12863168      -0.04408679       0.04593130       0.01770966      -0.09031872      -0.02080438       0.12863168      -0.01396462       0.02216591       0.60604424       0.41030000      -0.08138000       0.00039000      -0.01592000       0.43979000       0.01540000       0.00240000       0.10761000       0.01297000
W        3.18549913       6.46550578       9.79824072      11.41561182     -18.61426193     -16.33914182     -19.43235650       6.57396291      -0.00717670      -0.66634493       0.04260996       0.28567502     -19.43235650       6.57396291      -0.00717670       6.72509969       2.63905778     -11.90790281       0.10144999      -0.63109966      -0.05529669      -0.66634493       0.04260996       0.28567502       0.10144999      -0.63109966      -0.05529669       0.03118097      -0.01646944      -0.09882785      -0.61804000       0.11255000       0.00205000      -0.37536000      -1.06510000      -0.01365000       0.06466000      -0.08970000      -0.03268000
S        4.80067502       7.33547446      11.32937791       5.18837406      10.67718892      -1.74524020       8.89360642       2.09969235      -1.10995118       0.11480232      -0.08894304       0.13245252       8.89360642       2.09969235      -1.10995118       1.17563135      -6.75523865      -5.86064252      -0.04455788      -0.03314314      -0.04071958       0.11480232      -0.08894304       0.13245252      -0.04455788      -0.03314314      -0.04071958       0.01089266       0.01494875      -0.49737679       0.50983000      -0.03091000      -0.00628000      -0.00877000       0.49565000       0.00433000       0.01052000       0.13947000       0.01735000
Se       4.85647672       7.38801065       8.04552948      -3.24622864       7.50800174      22.46259228       6.22480216       1.15982324       2.73170460       0.30716768       0.14859294      -0.05106833       6.22480216       1.15982324       2.73170460      -1.95222069      -3.16510311      20.88680464       0.09725491       0.36719829       0.07602042       0.30716768       0.14859294      -0.05106833       0.09725491       0.36719829       0.07602042      -0.02420163      -0.01212281       1.00502012       0.63530000       0.10086000       0.00009000       0.07566000       0.64198000      -0.01054000       0.02671000      -0.06792000       0.05480000
27
Lattice="9.63991536913479 0.0 0.0 -4.819957684567395 8.348166709670728 0.0 -0.0 0.0 20.105007493867518" Properties=species:S:1:pos:R:3:raman_tensor:R:27:born_effective_charge:R:9 susceptibility_tensor="_JSON [[-635.4353334518432, 2.4363310799570344, 0.11022514281419103], [2.436120310639626, -625.1296439451363, 0.09154624316664169], [0.1549019291881451, 0.0904914953057923, -36.11691225618859]]" pbc="T T T"
W       -0.05514032       0.93140862      10.21445433     -49.22562437     -76.07157690     -30.12953431     -21.90435849      -9.12055259       0.57047640      -0.75016235       0.03973389      -0.27499570     -21.90435849      -9.12055259       0.57047640     -43.99028778     -86.09265325     -35.47131725       0.07020300      -0.34326943      -0.83012722      -0.75016235       0.03973389      -0.27499570       0.07020300      -0.34326943      -0.83012722       0.02885429      -0.06788701      -0.04720387      -0.99577000      -0.51272000       0.00242000      -0.17362000      -1.78240000       0.01160000      -0.06598000       0.13045000      -0.03439000
Se       1.55983471       1.71262736      12.02656562     -27.71050610       8.28210685     -48.39101684       3.02246488      -4.11616674      -1.62385804      -0.34387215       0.14734825      -0.16737645       3.02246488      -4.11616674      -1.62385804      -1.48578708       9.28371708     -38.74508778       0.24554646      -0.30579924       0.03927758      -0.34387215       0.14734825      -0.16737645       0.24554646      -0.30579924       0.03927758       0.04493913      -0.00257413      -1.18360793       0.36587000      -0.07857000       0.01181000       0.05087000       0.22867000       0.00834000      -0.41579000       0.22210000       0.00943000
Se       1.48406497       1.71185617       8.41834529      -7.84701081      30.88688939      55.04105212      12.46178358      -8.47488698      -7.57642784       0.39958724      -0.04383493      -0.08598897      12.46178358      -8.47488698      -7.57642784       0.54531094      29.49817208      49.56427373      -0.01961412       0.30573040       0.00222366       0.39958724      -0.04383493      -0.08598897      -0.01961412       0.30573040       0.00222366      -0.00344487      -0.01794621       0.66781629       0.71410000       0.07548000       0.00963000       0.14442000       1.18136000       0.01327000       0.29109000      -0.38576000       0.02935000
W       -1.49919964       3.73411762      10.03332032     -82.33932678     -34.45732320       9.04017592     -43.77747691     -24.57566274       3.62958591       0.48280228      -0.01464684      -1.31235061     -43.77747691     -24.57566274       3.62958591     -38.12162484       9.16553064       4.72088760      -0.05787997       0.02877689      -0.33707318       0.48280228      -0.01464684      -1.31235061      -0.05787997       0.02877689      -0.33707318      -0.07344148      -0.00492872      -0.06941091      -1.79605000      -0.22263000       0.00907000      -0.13148000      -0.79487000      -0.01584000       0.12007000      -0.02624000      -0.03304000
Se      -0.00443436       4.68615566      11.72300468      -1.16614365       8.66851403     -25.36424156       8.00943814      -2.01304658       5.07475139      -0.01799853       0.09621734      -0.02129941       8.00943814      -2.01304658       5.07475139      -0.12161965      -6.63499615     -27.65781091       0.16006800      -0.33127942       0.22139858      -0.01799853       0.09621734      -0.02129941       0.16006800      -0.33127942       0.22139858      -0.02217881      -0.00444933      -0.75278624       0.73172000       0.09766000      -0.00622000       0.03641000       0.72482000       0.00036000      -0.18398000      -0.24294000       0.04050000
Se       0.11847456       4.58503295       8.21638907      -8.77807684      -1.72329607      35.97622370       5.57908730      -7.36274017      -2.69656421       0.10440935      -0.11803338       0.18859986       5.57908730      -7.36274017      -2.69656421     -10.53492375     -16.94187958      39.68263188      -0.25714104       0.54853838      -0.37602630       0.10440935      -0.11803338       0.18859986      -0.25714104       0.54853838      -0.37602630       0.02577172      -0.00177730       0.94279953       0.55383000       0.01425000      -0.00966000      -0.04114000       0.38884000       0.00597000       0.33979000       0.23538000       0.00695000
W       -3.13355089       6.41198971      10.03274192     -35.85057939      16.01087659     -15.27766621      10.62367607      -9.27023580      -1.11528586      -0.66165783      -0.00410880       0.26890386      10.62367607      -9.27023580      -1.11528586      -8.77970672     124.64316042     -14.36016901       0.05811725      -0.38481526       0.96791422      -0.66165783      -0.00410880       0.26890386       0.05811725      -0.38481526       0.96791422      -0.03021405       0.07776931      -0.10118433      -0.63497000       0.24690000       0.04046000       0.27469000      -0.32968000       0.00245000       0.15386000      -0.15820000      -0.01288000
S       -1.57766855       7.32016613      11.61397724       6.31662718      12.45310756     -27.49497311       2.15426312      -1.47900552      -1.65091131      -0.02631689       0.10611307      -0.08496297       2.15426312      -1.47900552      -1.65091131       0.59985961      -2.65827921     -18.79242372       0.05086188      -0.29632656       0.05036747      -0.02631689       0.10611307      -0.08496297       0.05086188      -0.29632656       0.05036747       0.01897091       0.02059599      -0.49010194       0.41838000      -0.13309000       0.00039000      -0.14974000       0.47867000      -0.00857000       0.02405000      -0.10221000      -0.01055000
Se      -1.65266709       7.69352006       8.22525779      22.10601046     -24.62386066      43.51928346     -19.67048563       7.56374238       3.40044558       0.18646649       0.15800913       0.05792821     -19.67048563       7.56374238       3.40044558      10.59110601     -59.78960717      34.71234290       0.16390492       0.35528536      -0.54741312       0.18646649       0.15800913       0.05792821       0.16390492       0.35528536      -0.54741312      -0.02443462       0.01489965       0.88171296       0.84240000       0.08703000       0.00874000       0.02312000       0.74414000      -0.00717000      -0.30369000       0.92099000       0.01731000
W        3.12506776       0.94548290      10.11169283      15.09571659      -1.14014886       2.90610068       2.13640648      25.75077373      -3.12132901       0.61380829      -0.23469864       0.22793272       2.13640648      25.75077373      -3.12132901      12.92792362     -29.35195091      -2.58712524      -0.12049089       0.57743096      -0.07875199       0.61380829      -0.23469864       0.22793272      -0.12049089       0.57743096      -0.07875199      -0.01184309       0.01812001      -0.00209384      -1.96741000      -0.55245000       0.01766000       0.59134000      -1.52704000       0.01124000       0.06664000       0.06535000      -0.03590000
Se       4.65887470       1.85259894      11.91136863      13.08494265      11.62862662     -44.00456429      11.23577955       0.89774987       0.81098137      -0.21560586      -0.22106068      -0.07238338      11.23577955       0.89774987       0.81098137       9.85447049       5.67775626     -48.68699237       0.15836069      -0.37713343       0.31824856      -0.21560586      -0.22106068      -0.07238338       0.15836069      -0.37713343       0.31824856      -0.03308272       0.00782598      -1.00773936       0.57468000      -0.00887000       0.00046000      -0.08294000       0.31743000      -0.00467000       0.33626000      -0.01680000       0.01036000
S        4.70890586       1.86676961       8.37149530      -4.28787239      26.44879994      33.31757807      14.95835593       6.08991354       5.98513078      -0.01860825       0.28150746      -0.29093075      14.95835593       6.08991354       5.98513078       0.85851357      23.00119325      44.21164011      -0.08922017       0.22025540       0.23943340      -0.01860825       0.28150746      -0.29093075      -0.08922017       0.22025540       0.23943340      -0.05323416       0.00484182       0.58733145      -0.11438000       0.15071000      -0.01281000       0.11051000       0.35867000       0.01437000      -0.36053000      -0.05613000      -0.02918000
W        1.53698811       3.59819481      10.18158221      96.36854567      48.99962048     -34.60643281      25.71543840       9.10447246       2.72812399      -0.65630625      -0.04328558       0.79159833      25.71543840       9.10447246       2.72812399      39.84651201      97.98906824     -27.84931064      -0.08119131      -0.88201406       1.16621914      -0.65630625      -0.04328558       0.79159833      -0.08119131      -0.88201406       1.16621914       0.06315083       0.08140545      -0.08112339      -1.19065000       0.66618000      -0.00643000       0.06948000      -1.74152000      -0.02027000      -0.12431000      -0.26237000      -0.03784000
Se       3.26744931       4.67940772      11.71240077      16.62732873      11.81720999      -8.80180914       7.76083995       3.75405770       0.65899931      -0.02988909      -0.02673996       0.04313439       7.76083995       3.75405770       0.65899931      -2.74775383       2.95897835     -17.11887257      -0.26858900      -0.13076836      -0.17775313      -0.02988909      -0.02673996       0.04313439      -0.26858900      -0.13076836      -0.17775313       0.01499212      -0.01741326      -0.69135792       0.75607000      -0.06984000       0.01707000      -0.14993000       0.96583000       0.00187000       0.42105000       0.11213000       0.04318000
Se       3.20883863       4.58676813       8.42008048      24.39396834       3.19805786      19.28833686       2.36067778       5.15787317      -1.38176227       0.26477096       0.03497992      -0.07903299       2.36067778       5.15787317      -1.38176227       1.87342044     -10.68047650      31.85941703       0.24553066       0.38341122       0.00392680       0.26477096       0.03497992      -0.07903299       0.24553066       0.38341122       0.00392680      -0.02342822       0.01551652       0.64224604       0.95959000       0.06638000       0.00006000      -0.14727000       0.89378000      -0.00729000      -0.48834000      -0.09320000       0.02170000
W        0.04203003       6.49200101       9.92516046      41.02041772     -18.18778740       4.75312461       1.04633628      17.65809136       3.54251282       0.15325089      -0.09259083      -0.03913115       1.04633628      17.65809136       3.54251282      34.99188019      27.30342222       7.33153061      -0.13708788       0.05906569      -0.16085308       0.15325089      -0.09259083      -0.03913115      -0.13708788       0.05906569      -0.16085308       0.01242671      -0.02136408      -0.04974680      -0.87784000      -0.07406000      -0.02479000      -0.09097000      -0.89790000       0.01563000      -0.16353000      -0.08056000      -0.00814000
S        1.63994240       7.48394830      11.55440256     -12.03248947       6.07155987      -8.74620773       6.27167692       0.85686577      -0.97693910      -0.21155575       0.31393906       0.07314643       6.27167692       0.85686577      -0.97693910      -1.75524108     -13.00518833      -8.52948763       0.10065895      -0.11918606      -0.16164998      -0.21155575       0.31393906       0.07314643       0.10065895      -0.11918606      -0.16164998       0.00260462       0.01156634      -0.43479348       0.26567000      -0.01638000      -0.01005000      -0.04750000       0.37947000      -0.00377000      -0.34698000      -0.04545000      -0.01245000
Se       1.75629618       7.41858967       8.23403011     -14.85779687      14.67399869      31.58393112       8.31288534      -2.38076416      -4.92719887       0.41150767      -0.39495272      -0.25026031       8.31288534      -2.38076416      -4.92719887      -5.72213885      16.79567193      26.01914789      -0.09036457       0.16328461       0.18188117       0.41150767      -0.39495272      -0.25026031      -0.09036457       0.16328461       0.18188117       0.02171724      -0.03499137       0.90140563       0.58596000       0.02538000       0.00824000      -0.09820000       0.31910000      -0.00380000       0.64703000      -0.22019000       0.01982000
W        6.22593934       1.04352084      10.02811476     157.87075780     -47.25028315      10.18353495     -41.36440774      35.39165242       4.14526472       0.26236649       0.00418677       1.78064824     -41.36440774      35.39165242       4.14526472      53.28262666     -86.39690238      12.09817418       0.17075671       0.28571533      -0.08398026       0.26236649       0.00418677       1.78064824       0.17075671       0.28571533      -0.08398026       0.12441629      -0.05911048       0.00305068      -0.32911000       0.00010000      -0.01520000       0.41371000      -0.98230000      -0.00179000       0.14925000      -0.22027000      -0.00400000
Se       7.85441024       1.88662784      11.73495818       6.76620282       9.29873362     -16.41545443      11.52566627       5.02046468      -4.96486320      -0.39332443      -0.32835019       0.13062344      11.52566627       5.02046468      -4.96486320       6.73574307       9.12509288     -15.01673702      -0.13943393      -0.07914192       0.21550933      -0.39332443      -0.32835019       0.13062344      -0.13943393      -0.07914192       0.21550933      -0.02058488       0.02119794      -0.73768191       0.83196000       0.02119000      -0.00351000       0.19475000       0.89808000       0.01407000       0.42193000       0.28626000       0.03854000
S        8.03862903       1.80285697       8.62406109      -9.03702765      24.47268723      -3.34735699      16.07162616      -0.02420317       4.62064159       0.03249882       0.19417222      -0.06407674      16.07162616      -0.02420317       4.62064159       3.48008444      17.56768737      -5.97127220      -0.06025266      -0.18818067       0.06082486       0.03249882       0.19417222      -0.06407674      -0.06025266      -0.18818067       0.06082486       0.01603081       0.00833044       0.31633602       0.75233000      -0.05458000      -0.00910000       0.09377000       0.85307000       0.01952000      -0.12864000      -0.22059000      -0.00175000
W        4.88647310       3.79581308      10.10658367     -51.08724701     -64.44843588     -17.74901540     -50.79986352     -28.85545558      -4.85555784      -0.46363113       0.15332528      -0.24752384     -50.79986352     -28.85545558      -4.85555784     -16.58804461     -71.89696491     -17.92934318      -0.00243763      -0.77053858      -1.11081746      -0.46363113       0.15332528      -0.24752384      -0.00243763      -0.77053858      -1.11081746      -0.02276597      -0.08368242      -0.05078865      -1.19253000       0.14433000      -0.01398000      -0.45695000      -1.57095000      -0.01758000      -0.23800000       0.07907000      -0.02271000
S        6.49836335       4.66870741      11.65436848      11.69456432       9.49243239     -26.92133768      17.53658850       2.57693651       5.59164467       0.16158977       0.22303908       0.36274404      17.53658850       2.57693651       5.59164467       8.86035587      -6.13226562     -21.72574925       0.03080975       0.33097171       0.13171102       0.16158977       0.22303908       0.36274404       0.03080975       0.33097171       0.13171102       0.03792614      -0.02883381      -0.52701287       0.43925000      -0.19638000      -0.00191000      -0.14814000       0.23033000       0.00974000      -0.24901000       0.28017000      -0.00358000
Se       6.54829811       4.57548943       8.28338648      -8.68076980       6.98809593      37.54329762      12.20895944       1.50139068      -9.47073892       0.35120551      -0.14730003       0.02785022      12.20895944       1.50139068      -9.47073892      -0.70524570      -7.54155432      33.59156868       0.08428830       0.31608807       0.18006428       0.35120551      -0.14730003       0.02785022       0.08428830       0.31608807       0.18006428      -0.00780142       0.03845218       0.85686475       0.74721000      -0.05485000       0.00655000       0.07903000       0.57618000      -0.01305000       0.09955000      -0.27143000       0.00922000
W        3.37483797       6.48486747      10.02078843    -152.89653985      17.20671156      -5.13438310       1.05478330     -30.72430756       2.09443534      -0.04344816       0.08125552      -1.53076741       1.05478330     -30.72430756       2.09443534     -73.65053879      66.33592116     -10.81620347       0.01014193       0.26670064       0.47981925      -0.04344816       0.08125552      -1.53076741       0.01014193       0.26670064       0.47981925      -0.12674804       0.02290710      -0.08221329      -1.20236000       0.11151000      -0.01645000      -0.33283000      -0.16336000       0.00103000      -0.12031000       0.43161000       0.00590000
S        4.74148877       7.42851878      11.69369934      35.80676362      -5.20699983     -15.78077124      -5.45018467       5.04707872      -2.01604007       0.27345155      -0.19413421       0.46392121      -5.45018467       5.04707872      -2.01604007      18.24083495     -35.56495184     -18.21620979      -0.19951675      -0.02611653      -0.41175254       0.27345155      -0.19413421       0.46392121      -0.19951675      -0.02611653      -0.41175254       0.02260028      -0.00535535      -0.55247928       0.12581000       0.23763000      -0.00515000       0.03794000       0.07575000      -0.01249000       0.14131000      -0.52482000      -0.01360000
Se       4.83326077       7.39227270       8.25745511      18.77291907       7.64147494      44.66445633       2.99935764       2.10367727       3.77190826       0.12313686       0.02850622       0.32167275       2.99935764       2.10367727       3.77190826       1.69431720      -7.69952308      45.77516222      -0.01379035       0.38882791       0.41567954       0.12313686       0.02850622       0.32167275      -0.01379035       0.38882791       0.41567954       0.01282946       0.01139452       0.87461565       0.63623000       0.02969000       0.00270000      -0.06933000       0.17583000      -0.01315000      -0.02278000       0.16363000       0.00775000
27
Lattice="9.60763026765314 0.0 0.0 -4.80381513382657 8.320207811787622 0.0 -0.0 0.0 19.678348314207167" Properties=species:S:1:pos:R:3:raman_tensor:R:27:born_effective_charge:R:9 susceptibility_tensor="_JSON [[-578.014130858932, -3.3621234614958024, 0.18392580655853139], [-3.363179966799213, -570.7810726091366, 0.2814580199626826], [0.16069633432403138, 0.224337134413981, -34.244591145188146]]" pbc="T T T"
W        0.03247379       0.81117222       9.68429916      10.63943423      13.04668470      13.69067419      -2.89822379      10.86242394      -0.97129179      -0.04791697      -0.13335718       0.36555927      -2.89822379      10.86242394      -0.97129179      16.61732694      37.27140021      12.41900521      -0.14315156       0.12502906       0.44977796      -0.04791697      -0.13335718       0.36555927      -0.14315156       0.12502906       0.44977796       0.00458189       0.05141297      -0.05197171      -0.84672000      -0.02745000      -0.01642000       0.29496000      -1.20401000      -0.00364000       0.13006000       0.04730000      -0.00959000
Se       1.66019851       1.66250434      11.35448960       6.54746192      15.12895965      -9.15146720      10.97295862       2.69364234      -2.45608972      -0.22768426      -0.09427809      -0.07398113      10.97295862       2.69364234      -2.45608972       2.15060158       3.60940903      -4.83912968      -0.18602083       0.04709250      -0.12681218      -0.22768426      -0.09427809      -0.07398113      -0.18602083       0.04709250      -0.12681218      -0.00546481      -0.02397489      -0.60885240       1.21270000      -0.16950000      -0.00286000      -0.01634000       0.91648000      -0.00932000       0.03771000       0.37683000       0.06034000
S        1.64684390       1.85100605       8.18253047       4.66291252      14.82292803      -0.14493349      10.87981850       6.54280426       2.30429098       0.05115470       0.03610401       0.29589227      10.87981850       6.54280426       2.30429098       1.09112674       4.76410235       8.21198920       0.23934822       0.06228246       0.33226142       0.05115470       0.03610401       0.29589227       0.23934822       0.06228246       0.33226142      -0.00369064       0.02530778       0.70393434       0.06981000       0.02149000      -0.00117000       0.02625000       0.15124000      -0.01445000      -0.24442000      -0.13759000      -0.01120000
W       -1.69497813       3.73650349       9.95043052      96.01560186     -40.89954439     -12.17727776     -22.82762458      15.46015120      -1.42891548      -0.38104797       0.00512743       1.15693806     -22.82762458      15.46015120      -1.42891548      31.98230863     -30.12258119     -11.76397692       0.11348542      -0.39792267      -0.63722844      -0.38104797       0.00512743       1.15693806       0.11348542      -0.39792267      -0.63722844       0.06324459      -0.05540236      -0.01410374      -0.75235000      -0.20720000      -0.01105000      -0.00207000      -0.60633000       0.01357000      -0.09170000       0.34248000      -0.00846000
S       -0.03833444       4.77162957      11.56018897      -6.52514320      -8.95305869     -18.30128467       4.42872135       2.52106748       0.25391935      -0.04467996      -0.05515826       0.03424130       4.42872135       2.52106748       0.25391935       3.60181771     -29.41387926      -6.34966565       0.11415824       0.37021183      -0.36079875      -0.04467996      -0.05515826       0.03424130       0.11415824       0.37021183      -0.36079875       0.01197223       0.00415001      -0.66022198       0.10215000      -0.08499000      -0.00167000      -0.04655000       0.17245000       0.01305000      -0.03578000      -0.18474000      -0.00564000
S        0.13710088       4.63424046       8.29196138     -27.49088422       2.31267227      19.65302353       9.74256265      -5.63299514       1.80973791       0.33270376       0.03395573      -0.32348712       9.74256265      -5.63299514       1.80973791      -9.82516562     -15.76521073       7.79526465      -0.11734537       0.03703717      -0.16689641       0.33270376       0.03395573      -0.32348712      -0.11734537       0.03703717      -0.16689641      -0.00126215      -0.00502105       0.62109946       0.24193000       0.06141000      -0.00382000      -0.00312000       0.22554000      -0.00145000       0.42643000      -0.26592000      -0.01619000
W       -3.08433754       6.50734406       9.75347410    -102.31440958      -9.98001647      21.43867451     -31.96284889     -41.06934598       3.86223809       0.89062034       0.13084139      -1.80984185     -31.96284889     -41.06934598       3.86223809     -46.50502537      -5.36037640      32.21509937       0.10836424       0.68271625      -0.71351159       0.89062034       0.13084139      -1.80984185       0.10836424       0.68271625      -0.71351159      -0.12634945      -0.05013160       0.12840027      -0.83261000       0.62959000      -0.01590000       0.46270000      -0.90777000       0.00558000       0.01541000      -0.14618000      -0.00209000
S       -1.56825349       7.33725116      11.37745184      17.31324482      20.59465431     -14.11880520      13.96229674       9.94577995       4.81802280       0.16792469      -0.10978480       0.35829247      13.96229674       9.94577995       4.81802280      15.88524542       7.74772691     -21.70029673       0.15231273      -0.06098657       0.28347834       0.16792469      -0.10978480       0.35829247       0.15231273      -0.06098657       0.28347834      -0.00926870       0.01338488      -0.52317465       0.30710000       0.02826000      -0.01252000      -0.11424000       0.44712000      -0.01337000       0.04987000      -0.15018000      -0.00512000
S       -1.57094363       7.40786724       8.29753380      29.90330317      -1.01103762     -12.85902324       9.41692694       4.15537104     -11.63061621      -0.48330601      -0.02341229       0.56944228       9.41692694       4.15537104     -11.63061621      15.95305092     -27.86733330     -10.08830216      -0.34839047      -0.30315026       0.07402394      -0.48330601      -0.02341229       0.56944228      -0.34839047      -0.30315026       0.07402394       0.05841619      -0.00934303       0.52587866       0.60312000      -0.26234000       0.01895000      -0.09841000       0.34374000       0.00133000      -0.03216000       0.08793000       0.00342000
W        3.33192618       0.96758444       9.68506777     -63.49637577     -39.05149351      14.99104341     -30.57952083     -13.30463742       6.39092972       0.33920073       0.16564297      -0.41220738     -30.57952083     -13.30463742       6.39092972     -25.52097630     -13.06300605      27.95578601      -0.00330385       0.92396725      -0.67494622       0.33920073       0.16564297      -0.41220738      -0.00330385       0.92396725      -0.67494622      -0.05873057      -0.03210536       0.01539137      -0.84152000      -0.11043000       0.00192000       0.40632000      -0.37504000      -0.00873000       0.43167000       0.16738000      -0.04362000
S        4.68679420       1.79701117      11.41002171      12.37280745      13.59933421     -19.59897045       7.38126488       0.89971040      -1.18710915      -0.04596409       0.04709851       0.01682037       7.38126488       0.89971040      -1.18710915       5.57064759      -9.40455445     -15.60464720      -0.04274359      -0.03775417       0.03322737      -0.04596409       0.04709851       0.01682037      -0.04274359      -0.03775417       0.03322737      -0.03657577       0.03045304      -0.56632331       0.33593000       0.14791000      -0.00495000       0.14061000       0.37983000      -0.01433000       0.03726000      -0.16737000      -0.01041000
S        5.01460654       2.13164493       8.13218649     -53.63028303     -14.56548291      34.02376477       3.23037204     -14.11494408       1.44705794       0.06306265      -0.03818600      -0.24018072       3.23037204     -14.11494408       1.44705794     -26.78531065     -42.32245253      15.97958113      -0.20564801      -0.11779536      -0.16596910       0.06306265      -0.03818600      -0.24018072      -0.20564801      -0.11779536      -0.16596910       0.03080120      -0.03581867       0.72512831       0.08709000      -0.13706000      -0.00724000      -0.08149000       0.12815000      -0.01786000       0.81132000       0.34256000      -0.01068000
W        1.60341742       3.70306893       9.96714779     -57.33426777     -16.07518978     -14.86961764     -27.77862846      -5.48220777      -4.77829857      -0.14972262      -0.01712022      -0.61667795     -27.77862846      -5.48220777      -4.77829857     -19.64908024       7.33623663     -21.11552007      -0.00654636      -0.56035270      -0.12998832      -0.14972262      -0.01712022      -0.61667795      -0.00654636      -0.56035270      -0.12998832      -0.00972430      -0.00764794       0.05201673      -1.31846000      -0.29614000       0.01479000       0.35920000      -0.64001000       0.00572000       0.17058000       0.16919000      -0.01647000
Se       3.08866098       4.75251039      11.66692974       9.93897660      -1.44112392     -21.97968915       1.51067822      -1.52942151       3.00502471      -0.50030888       0.02398689       0.11158358       1.51067822      -1.52942151       3.00502471       8.34071319     -18.73615259     -24.03808788       0.19890641      -0.49706563      -0.03521524      -0.50030888       0.02398689       0.11158358       0.19890641      -0.49706563      -0.03521524       0.04580727       0.01309604      -1.09178380       0.61548000       0.01697000       0.00186000      -0.01054000       0.48327000       0.00889000      -0.06776000      -0.31376000       0.02755000
S        3.17532180       4.59062182       8.42685251      -4.97793001      11.88654379      -4.12053984      14.06993845      -5.37834776       0.30792618      -0.29069576       0.28219587      -0.10441037      14.06993845      -5.37834776       0.30792618      -5.77368429      -7.00752628      -2.05391096       0.02150225      -0.11033180       0.20818148      -0.29069576       0.28219587      -0.10441037       0.02150225      -0.11033180       0.20818148      -0.02673161      -0.00472661       0.36418561       0.95005000       0.19051000      -0.00631000       0.24693000       0.80963000       0.01864000      -0.16499000       0.06786000       0.02194000
W        0.01402714       6.39503086       9.87328124      10.90513567     -10.04191664     -18.24053556      -5.89582161      -8.36405457       0.05300229      -0.37353662       0.01578719       0.03713221      -5.89582161      -8.36405457       0.05300229      -5.34230275      82.34232806     -16.95071230       0.07433079      -0.49397445       1.33920507      -0.37353662       0.01578719       0.03713221       0.07433079      -0.49397445       1.33920507       0.00569834       0.07286578      -0.07775918      -0.34219000      -0.01415000      -0.02487000      -0.36793000      -0.93424000       0.01588000      -0.12519000       0.23549000      -0.02239000
S        1.49321790       7.44793106      11.35314453       5.89802340       6.48983300      -8.49899297       4.91583788      -5.68679801      -1.90007248       0.08857076       0.15088640       0.14412069       4.91583788      -5.68679801      -1.90007248       0.11609574     -14.26591020      -3.85033985      -0.26876388       0.25698832      -0.26865780       0.08857076       0.15088640       0.14412069      -0.26876388       0.25698832      -0.26865780       0.03138531      -0.03765321      -0.48115009       0.51562000       0.13546000       0.01440000      -0.01624000       0.56047000      -0.00243000       0.22446000       0.08099000       0.01000000
Se       1.56402613       7.49154970       8.17945603      -9.14529954      -3.34086585      17.04069362       2.63727460      -5.08439953       6.07773346       0.22649314      -0.08266767      -0.03275973       2.63727460      -5.08439953       6.07773346      -7.79358715     -27.59915100      11.59199213       0.37961768       0.29699644      -0.26320145       0.22649314      -0.08266767      -0.03275973       0.37961768       0.29699644      -0.26320145       0.00734840       0.02359861       0.81642599       0.88354000       0.25718000      -0.00471000       0.15328000       0.84366000       0.00464000      -0.08916000       0.18913000       0.05831000
W        6.31596006       0.92886569       9.83927023      68.65480740      -4.57126667      -3.25625317      -0.84690999      31.70822727      -2.04705391      -0.71237715      -0.02333427       0.38259090      -0.84690999      31.70822727      -2.04705391      26.96118390      47.94974829     -12.00321232      -0.00487357      -0.42358297       0.46072302      -0.71237715      -0.02333427       0.38259090      -0.00487357      -0.42358297       0.46072302       0.06865966       0.03650509       0.00783019      -1.01334000       0.36816000       0.00697000      -0.45896000      -1.28380000      -0.02142000      -0.37126000      -0.19187000      -0.05242000
Se       8.19021657       1.58919812      11.43154280     -37.57515146      13.77152653       3.06792784      10.31778855     -10.63920137      -2.71410263      -0.22599676       0.19736808      -0.37939292      10.31778855     -10.63920137      -2.71410263     -21.57153357      16.46624715     -10.72043563       0.33146358      -0.38076800       0.10551533      -0.22599676       0.19736808      -0.37939292       0.33146358      -0.38076800       0.10551533       0.04132168      -0.02959967      -0.72562945       0.90988000      -0.03375000       0.00592000      -0.15338000       0.92670000      -0.00853000      -0.59078000       0.36140000       0.04133000
Se       7.91236391       1.89452861       8.14832731      23.04440473      -0.50373661      19.07278239       1.35013770       4.43971429       0.44430052       0.17610534       0.13879407      -0.36122046       1.35013770       4.43971429       0.44430052       1.76329330      -8.38590902      21.31836982       0.08659253       0.27433623       0.04878819       0.17610534       0.13879407      -0.36122046       0.08659253       0.27433623       0.04878819      -0.07381298      -0.03389401       0.86899022       0.79907000       0.31686000       0.01875000       0.08117000       0.58940000      -0.01331000      -0.27543000      -0.01977000       0.05753000
W        4.71504063       3.71229226       9.86357754      45.59201989      13.23051120      22.90003592       9.88028777      11.21448125      -1.47103589       0.85522483      -0.21239363       0.68385390       9.88028777      11.21448125      -1.47103589      19.30164350      72.17192532      32.05157972      -0.20203854       0.65842901       0.80770090       0.85522483      -0.21239363       0.68385390      -0.20203854       0.65842901       0.80770090       0.06578765       0.06688390       0.25273293      -1.20612000      -0.50117000       0.00850000      -0.01738000      -1.40677000       0.03349000      -0.07540000      -0.03211000      -0.02921000
Se       6.29040377       4.67881986      11.69584871      11.48584372       3.12486456     -25.92813630       3.26788226       7.59058595      -4.79900644      -0.40112406      -0.12159083       0.22682216       3.26788226       7.59058595      -4.79900644       3.05315975      -6.42427444     -29.04796277      -0.12085241      -0.67384208       0.34305194      -0.40112406      -0.12159083       0.22682216      -0.12085241      -0.67384208       0.34305194      -0.03375583       0.05414928      -1.15990765       0.47738000      -0.01076000       0.01703000       0.17287000       0.45882000       0.00850000       0.44045000      -0.18504000       0.01772000
S        6.38744083       4.63106994       8.32136073      -5.13740855      14.09673929       4.84227846      10.63662034      12.72003603       1.21215654      -0.06361237       0.10962971      -0.37123735      10.63662034      12.72003603       1.21215654       1.76650628      -0.75112843      14.16526048       0.08902343      -0.10707951      -0.24227194      -0.06361237       0.10962971      -0.37123735       0.08902343      -0.10707951      -0.24227194      -0.02054834      -0.04214662       0.49419047       0.49000000      -0.16086000      -0.00111000      -0.01547000       0.48517000       0.01771000      -0.24893000      -0.24245000       0.01568000
W        3.22095805       6.52156335       9.78200876       1.47293101     -15.57247618      21.65292699     -19.50137132      -1.45207958      -1.94615467       0.43504305      -0.40690192      -0.14555354     -19.50137132      -1.45207958      -1.94615467       9.79918917     -17.18483068      20.77948927      -0.30801473       0.51666606      -0.43885227       0.43504305      -0.40690192      -0.14555354      -0.30801473       0.51666606      -0.43885227      -0.02210175      -0.04157424       0.06362155      -1.50911000      -0.16991000       0.00495000      -0.68465000      -0.88135000      -0.01201000      -0.01770000      -0.13727000      -0.03652000
S        4.94091602       7.38740299      11.42539391      -2.90216662      15.22656439     -28.64629199       7.16555677      -3.40322915       8.56091068       0.06409641       0.17303488      -0.17021297       7.16555677      -3.40322915       8.56091068       0.15484027      -7.63717940     -42.04536403       0.06675425      -0.25172100       0.12107844       0.06409641       0.17303488      -0.17021297       0.06675425      -0.25172100       0.12107844       0.00407250       0.00984684      -0.55571155       0.26722000      -0.05084000      -0.00484000      -0.17773000       0.55941000       0.00498000      -0.35240000      -0.00400000      -0.00228000
S        4.82082064       7.28844440       7.97836833      16.09117936       8.56719134      19.30522133       7.22312909       0.31878436      -3.21130364       0.28001494      -0.18878111       0.34687478       7.22312909       0.31878436      -3.21130364       4.87936548       0.25854739      27.49797607      -0.02075080       0.15885411      -0.09361949       0.28001494      -0.18878111       0.34687478      -0.02075080       0.15885411      -0.09361949      -0.01133992       0.00706704       0.96773380      -0.20566000       0.06276000       0.00543000      -0.07979000      -0.24177000      -0.01112000       0.00784000      -0.29032000      -0.03154000
27
Lattice="9.57270457190181 0.0 0.0 -4.786352285950905 8.289962159266967 0.0 -0.0 0.0 19.25070889409454" Properties=species:S:1:pos:R:3:raman_tensor:R:27:born_effective_charge:R:9 susceptibility_tensor="_JSON [[-522.0688477180333, -1.0491129098269496, 0.015568534678258736], [-1.0490143170903738, -524.0346767435246, -0.15229052289988607], [0.06211220834914029, -0.13320377145652884, -32.526831598730936]]" pbc="T T T"
W       -0.05753195       0.93956095       9.64402122      32.77563643     -16.39726924      -1.52506669     -27.44041805      15.62339185      -2.09211177      -0.10584750      -0.11111527       0.03767418     -27.44041805      15.62339185      -2.09211177      12.08451780     -14.25626875       0.29350017      -0.14905633       0.06055423      -0.50747740      -0.10584750      -0.11111527       0.03767418      -0.14905633       0.06055423      -0.50747740       0.02091710      -0.02028903      -0.04440286      -0.84704000       0.05983000      -0.00130000       0.36820000      -0.43718000       0.00589000      -0.06669000       0.19600000      -0.00021000
S        1.51947540       1.87175092      11.10347576      12.96811293      12.59028235       9.34261000      14.26453861       1.70725666       4.09542923       0.15603848       0.02460931       0.28347294      14.26453861       1.70725666       4.09542923       7.91233574      -5.67531282       8.84785125       0.23738462       0.19376101       0.11996671       0.15603848       0.02460931       0.28347294       0.23738462       0.19376101       0.11996671       0.00443329      -0.00558667      -0.55729307       0.47321000      -0.11526000      -0.00203000      -0.01410000       0.29249000      -0.00402000       0.04751000      -0.00663000       0.01858000
S        1.57078509       1.87653728       8.05284627      -3.61997620      12.60999746       4.42537599      11.83308304      -2.47766182      -0.43208651       0.09275307       0.05266389      -0.13521037      11.83308304      -2.47766182      -0.43208651      -0.60219457       3.25988761       8.10605616      -0.06961533      -0.05485529       0.16131778       0.09275307       0.05266389      -0.13521037      -0.06961533      -0.05485529       0.16131778      -0.02010439       0.02807640       0.63158711       0.35023000      -0.02350000       0.00795000       0.02528000       0.46836000       0.00252000       0.02628000      -0.06634000       0.01039000
W       -1.66191724       3.60555918       9.72625075      52.77490157     -17.25636374     -28.57116081      -1.21917844      12.54237952      -0.31464795      -0.81648570       0.02532119       0.69155414      -1.21917844      12.54237952      -0.31464795      19.34761651      43.27662667     -22.62331992      -0.02182847      -0.71195334       0.63604448      -0.81648570       0.02532119       0.69155414      -0.02182847      -0.71195334       0.63604448       0.04545046       0.02885896      -0.16006422      -0.34492000      -0.03587000      -0.01300000       0.08547000      -0.81713000      -0.01153000      -0.35141000      -0.11571000      -0.03535000
S       -0.03436601       4.60494953      11.18857710      -1.06186601      13.92803141       8.22022593      14.03613309       1.74611084      -0.42753513       0.35600356       0.09796941      -0.23075695      14.03613309       1.74611084      -0.42753513       1.37939968      -2.64575791       4.44101601      -0.19101742       0.31853672       0.25682878       0.35600356       0.09796941      -0.23075695      -0.19101742       0.31853672       0.25682878      -0.02210745       0.01302213      -0.60181397       0.27328000       0.03226000       0.01761000      -0.09419000       0.39584000      -0.00199000       0.27704000       0.04025000       0.01595000
S       -0.00114872       4.60753416       7.99158096      -6.88539435       7.22026693      22.10383099      10.92487015      -1.02846652       2.88406379       0.38565083      -0.04583241      -0.18956741      10.92487015      -1.02846652       2.88406379      -2.92176763       3.08010765      21.31795274       0.14273975       0.24537449       0.00674810       0.38565083      -0.04583241      -0.18956741       0.14273975       0.24537449       0.00674810      -0.01336345      -0.02112870       0.75695975       0.23091000      -0.04268000      -0.00128000      -0.02483000       0.10523000       0.00339000       0.00791000      -0.19505000      -0.03057000
W       -3.09935456       6.40691544       9.62334418     -42.80138418      -4.64870832      -2.56000441      -5.58061143     -18.38343183       1.17315416      -0.11908365      -0.10669301      -0.70261856      -5.58061143     -18.38343183       1.17315416      -6.66112319      36.52439766      -7.00067814       0.07115007      -0.10573816      -0.20076297      -0.11908365      -0.10669301      -0.70261856       0.07115007      -0.10573816      -0.20076297      -0.02708823       0.00343947      -0.09500839      -0.86103000      -0.21009000      -0.01008000       0.04542000      -0.91344000      -0.00879000       0.01185000      -0.37738000      -0.01942000
S       -1.51746513       7.39079802      11.18675829      -3.48145822      13.95471968      -1.06207139      11.95055635      -1.59233295       0.57359256       0.20290361       0.00529303      -0.09153199      11.95055635      -1.59233295       0.57359256      -3.60700042      -8.40037983      -1.62224124      -0.04921799       0.16316217       0.06189954       0.20290361       0.00529303      -0.09153199      -0.04921799       0.16316217       0.06189954      -0.00016633       0.01734220      -0.65930005       0.21088000      -0.00568000       0.00371000      -0.05137000       0.48043000       0.00289000      -0.01863000      -0.09613000       0.01665000
S       -1.65339753       7.38342704       7.97454154      23.33527317       4.68925090      12.31624174       8.53356911       6.63613701      -2.94117636      -0.03456497      -0.05938369       0.31321452       8.53356911       6.63613701      -2.94117636       9.88567316     -14.17058829       7.38128167       0.04246874      -0.01472194       0.08450287      -0.03456497      -0.05938369       0.31321452       0.04246874      -0.01472194       0.08450287       0.01581084      -0.01285383       0.75282300       0.34147000       0.01120000       0.00171000      -0.01384000       0.25182000       0.00477000      -0.23330000       0.16434000       0.00488000
W        3.23059634       0.93314724       9.55107026     -45.24228561     -17.16080664      15.78990226     -10.95930562      -9.78135570      -0.95865666       0.60725722       0.03648510      -0.26630007     -10.95930562      -9.78135570      -0.95865666     -27.29917954      19.20370737      16.81351579       0.05460168       0.62802772       0.23866378       0.60725722       0.03648510      -0.26630007       0.05460168       0.62802772       0.23866378      -0.03061736      -0.00759338      -0.03814690      -0.61433000       0.11221000       0.02562000      -0.11262000      -0.97956000       0.00641000       0.16452000       0.23736000       0.00537000
S        4.81468749       1.92430507      11.12242972      -0.07855839       5.91245343      -5.17943384       5.37532241       0.33007161      -0.36024673      -0.04623599      -0.02985255       0.04111600       5.37532241       0.33007161      -0.36024673      -0.39844959     -21.31070701      -4.89605675      -0.13924304       0.05205686      -0.10066476      -0.04623599      -0.02985255       0.04111600      -0.13924304       0.05205686      -0.10066476       0.02477359      -0.01500201      -0.57742604       0.38756000      -0.04703000      -0.00366000       0.08555000       0.37125000      -0.00345000      -0.02971000      -0.23157000       0.01432000
S        4.80607206       1.82656776       7.94716361       4.89909194       8.92081991       9.51289071       7.69758480       1.47067617      -0.53988061      -0.03718633      -0.03586000       0.10955837       7.69758480       1.47067617      -0.53988061       1.85246179      -5.24712403      10.87046126       0.09893122       0.04755477       0.13920137      -0.03718633      -0.03586000       0.10955837       0.09893122       0.04755477       0.13920137       0.01527432       0.01668727       0.77069501       0.26169000       0.00839000      -0.00071000       0.08201000       0.34138000       0.00286000      -0.03420000      -0.07345000       0.00622000
W        1.57279536       3.77825077       9.69781982       6.46792265     -37.56481381     -27.37473724     -45.74693262       1.11025788      -0.68664767      -1.05507362       0.02425123       0.07116161     -45.74693262       1.11025788      -0.68664767       8.50989757     -35.50089447     -24.40810435      -0.01517171      -0.93275454      -0.77166446      -1.05507362       0.02425123       0.07116161      -0.01517171      -0.93275454      -0.77166446       0.01835047      -0.05862594      -0.18679917      -0.48781000       0.21677000       0.00745000      -0.01456000      -0.26647000      -0.01006000       0.00893000      -0.23284000      -0.00374000
S        3.26304781       4.59978027      11.13114088     -12.26771087      11.70767507       0.88350183      14.53423354      -6.63410703      -2.03197859       0.41859780       0.04501627       0.06757065      14.53423354      -6.63410703      -2.03197859      -7.05626707     -10.43920944       0.76604660       0.01268972       0.34486724       0.23514980       0.41859780       0.04501627       0.06757065       0.01268972       0.34486724       0.23514980       0.04008765       0.04174004      -0.55619505       0.21007000      -0.06184000       0.00294000      -0.02339000       0.43364000       0.00882000      -0.42414000       0.12824000       0.02242000
S        3.09514257       4.68698761       7.99627158       9.95315758       4.64178690      10.91884780       7.99473727      -1.02474819      -0.43596224       0.18386612      -0.00965548       0.02753485       7.99473727      -1.02474819      -0.43596224       1.50451031     -15.35807033       7.20161696      -0.02515427      -0.22132217      -0.32300059       0.18386612      -0.00965548       0.02753485      -0.02515427      -0.22132217      -0.32300059      -0.01402050      -0.04399491       0.73900528       0.36594000       0.04107000       0.00460000       0.15836000       0.16316000      -0.00755000      -0.11383000      -0.08153000      -0.00445000
W       -0.01857105       6.49689887       9.70413781      -2.89809656     -22.37502605     -25.10124581     -32.92730263      -1.66305740       1.82853099      -0.98123355       0.12325541       0.07258766     -32.92730263      -1.66305740       1.82853099      -7.61613076      17.91730901     -25.82204987      -0.17591190      -0.90875503      -0.45873336      -0.98123355       0.12325541       0.07258766      -0.17591190      -0.90875503      -0.45873336      -0.00539312      -0.01001884      -0.19731456      -0.32531000       0.52715000      -0.00068000      -0.12542000      -0.44179000       0.03099000      -0.20258000       0.20311000      -0.00556000
S        1.60122629       7.44038463      11.19508654       2.98565128       4.52507724      -8.15388229       6.37853318      -2.21518922       0.93947424       0.19401083      -0.01964456       0.14250992       6.37853318      -2.21518922       0.93947424      -0.05704062     -22.52296108      -2.75446168       0.12231044       0.09136247      -0.15787785       0.19401083      -0.01964456       0.14250992       0.12231044       0.09136247      -0.15787785       0.03203446       0.01837251      -0.63812671       0.21005000      -0.03295000      -0.00104000       0.00600000       0.37522000       0.00512000      -0.07027000      -0.29660000       0.00857000
S        1.58265525       7.43196065       8.13699034       0.85952567       1.71593450      -1.82772424       6.63065344      -2.07049789      -1.66766147      -0.10409261       0.10537881      -0.09957653       6.63065344      -2.07049789      -1.66766147      -0.12547708     -24.25302911      -6.00527507      -0.05938163      -0.16188415      -0.14507603      -0.10409261       0.10537881      -0.09957653      -0.05938163      -0.16188415      -0.14507603      -0.03095510      -0.02307089       0.55390191       0.56548000       0.04817000       0.00766000       0.12279000       0.40494000      -0.00176000       0.00741000       0.03416000       0.01046000
W        6.39523674       0.92922243       9.60103978      11.96039265     -24.23707181       3.21227927     -15.26510192       1.21034947      -2.05697049       0.21069905       0.02480737       0.07891251     -15.26510192       1.21034947      -2.05697049       6.70244683      28.47495107       6.23487837       0.10512465       0.39011820       0.23793168       0.21069905       0.02480737       0.07891251       0.10512465       0.39011820       0.23793168       0.01153055       0.00885975      -0.07660304      -0.91006000      -0.18932000      -0.00907000      -0.21524000      -0.58078000       0.00028000      -0.13843000       0.38933000      -0.03039000
S        7.91538223       1.76798281      11.30297092       0.19501633       8.88797670     -17.01819738       9.06295829       0.54355074      -1.62028426      -0.02138955       0.10034289      -0.04025983       9.06295829       0.54355074      -1.62028426      -0.36621114      -4.75933156     -11.31371376       0.02678322       0.06639438       0.05219884      -0.02138955       0.10034289      -0.04025983       0.02678322       0.06639438       0.05219884      -0.02711014      -0.02659615      -0.81010553       0.17242000       0.10331000       0.00037000      -0.00392000      -0.03980000      -0.00672000       0.06981000       0.03202000       0.00936000
S        8.04873000       1.92765552       8.00019639     -17.34171932      -2.28863183      19.13799661       2.58614190      -2.64563834       1.43296030       0.05853774       0.01384670      -0.28561895       2.58614190      -2.64563834       1.43296030      -5.56038586     -28.18972393      15.49612515       0.03971750       0.06578554      -0.15883896       0.05853774       0.01384670      -0.28561895       0.03971750       0.06578554      -0.15883896      -0.01254962       0.03887911       0.70927364       0.24558000       0.03526000      -0.00470000      -0.11657000       0.50813000      -0.00981000       0.21874000       0.20808000       0.00545000
W        4.81076268       3.68692717       9.59280725     -38.86864309      -2.53471615     -19.55989101     -16.78164272      -8.40123464       2.43274067      -0.62271219      -0.01837950      -0.23789759     -16.78164272      -8.40123464       2.43274067     -24.90972990      21.04820327     -16.66472509       0.01540406      -0.57601960      -0.20894352      -0.62271219      -0.01837950      -0.23789759       0.01540406      -0.57601960      -0.20894352      -0.02816121       0.00726402      -0.23149724      -1.01966000      -0.31567000      -0.01446000       0.00334000      -0.99394000      -0.02736000      -0.00161000      -0.09818000      -0.04291000
S        6.32861072       4.56053219      11.14004349      10.13992824      11.05343963      -1.00600647       6.26990973       5.24662543       1.33803967       0.39201886      -0.24945450       0.03221848       6.26990973       5.24662543       1.33803967       5.70005208     -17.71521057      -2.58844722       0.14990683       0.04814668       0.05740346       0.39201886      -0.24945450       0.03221848       0.14990683       0.04814668       0.05740346      -0.02547699       0.01580211      -0.55947095       0.35602000       0.02414000      -0.00663000       0.21163000       0.57721000       0.00060000       0.32892000      -0.12317000       0.03060000
S        6.44089854       4.49964978       7.91078733      -2.26625918      10.95535951      19.04683395       8.37144410       0.98373477      -1.01731117       0.22444316       0.10474753       0.11100750       8.37144410       0.98373477      -1.01731117       1.10217798       1.76223100      24.98606766      -0.20552730       0.28235873      -0.04024772       0.22444316       0.10474753       0.11100750      -0.20552730       0.28235873      -0.04024772       0.02359873      -0.03157346       0.84533778       0.37761000      -0.01800000      -0.00624000      -0.00546000       0.20098000       0.00891000       0.07566000      -0.04916000      -0.01740000
W        3.19048671       6.37580415       9.59510470      15.97965678     -13.92767874       4.52296162      -8.00025002       8.90260757      -3.10600062       0.49769355       0.05089947      -0.05955288      -8.00025002       8.90260757      -3.10600062      10.75434950      58.83896172       6.47336576       0.10218517       0.68404602       1.01633637       0.49769355       0.05089947      -0.05955288       0.10218517       0.68404602       1.01633637       0.00223544       0.04816606      -0.04392767      -0.40360000      -0.24579000       0.00938000      -0.25013000      -0.49707000       0.01821000       0.24882000      -0.05771000      -0.01457000
S        4.75409227       7.16488219      11.18848138       4.81960299      20.70254361      -0.90957986      12.73602660       1.80438750       0.72893827      -0.02007059       0.01148508       0.05788833      12.73602660       1.80438750       0.72893827       4.61691312      12.27632709     -10.69245960      -0.15071224      -0.00699164       0.12493846      -0.02007059       0.01148508       0.05788833      -0.15071224      -0.00699164       0.12493846      -0.02124494      -0.01740826      -0.66668339       0.30235000       0.13357000      -0.00587000      -0.01637000       0.16054000      -0.00351000      -0.02531000       0.38858000       0.01144000
S        4.84685178       7.38141677       8.09793371     -13.26169753       4.26309192       0.95243722       5.69046867      -1.64954039       2.89482732      -0.01593884      -0.15942338       0.06554124       5.69046867      -1.64954039       2.89482732      -4.53007218     -16.77018880      -1.71179488       0.03415432       0.00900351      -0.09084791      -0.01593884      -0.15942338       0.06554124       0.03415432       0.00900351      -0.09084791       0.02479564       0.00370721       0.58385604       0.47900000      -0.00966000      -0.00823000      -0.11205000       0.43654000      -0.00510000       0.21671000       0.07996000       0.01390000
27
Lattice="9.867350441513059 0.0 0.0 -4.9336752207565295 8.54512548235031 0.0 -0.0 0.0 20.42245520879958" Properties=species:S:1:pos:R:3:raman_tensor:R:27:born_effective_charge:R:9 susceptibility_tensor="_JSON [[-726.9691764876075, -0.5431548590386787, -0.12925849438614914], [-0.5429046414361678, -718.7921433449143, -0.1649261503322128], [-0.10876476833954922, -0.1448892838073931, -38.31385412628771]]" pbc="T T T"
Mo       0.10538330       0.95881044      10.33999653     -56.10471213       5.27722104     -11.84674537      -5.93645874     -27.50084939       0.78213646      -0.11937522      -0.07885248      -0.74520864      -5.93645874     -27.50084939       0.78213646      -4.90382672      22.77303184      -7.46539787       0.03325144      -0.27639732      -0.09337260      -0.11937522      -0.07885248      -0.74520864       0.03325144      -0.27639732      -0.09337260      -0.03765285       0.00349991       0.18306393      -2.37104000       0.13435000      -0.01373000      -0.10619000      -1.99118000       0.01028000      -0.04237000      -0.27240000      -0.09785000
Se       1.76803185       2.02872725      11.94551312       4.08306842       3.20664424     -24.72383038       3.12752631       0.60559672       3.52883688      -0.30029357       0.12068730       0.32563068       3.12752631       0.60559672       3.52883688      -7.01998673     -11.16645302     -30.78455979       0.05625238      -0.51751021       0.27921080      -0.30029357       0.12068730       0.32563068       0.05625238      -0.51751021       0.27921080       0.02541461       0.05616045      -0.85369374       0.81913000      -0.14005000       0.01031000      -0.07195000       0.94446000       0.01331000       0.04852000      -0.23557000       0.03305000
Se       1.59545189       1.84124759       8.56890580      39.04450883      12.03339940      14.39367031       9.40708517       4.17680860      -5.02591944       0.01091994      -0.01023439       0.10395489       9.40708517       4.17680860      -5.02591944      14.05197969       1.08021201      17.08820057       0.06677745      -0.11659160       0.01660917       0.01091994      -0.01023439       0.10395489       0.06677745      -0.11659160       0.01660917      -0.02920927      -0.03571716       0.61219910       1.11484000      -0.09083000       0.00846000      -0.08897000       1.05225000       0.01583000      -0.31826000      -0.15307000       0.04731000
Mo      -1.69106652       3.75018521      10.14856993      28.17991646       0.46318876      17.83168909       6.32272870      18.05341342      -3.38269367       0.36724367      -0.08473158       0.49168471       6.32272870      18.05341342      -3.38269367       9.10225383       8.83368455      21.14011966      -0.04126222       0.49487090       0.10021850       0.36724367      -0.08473158       0.49168471      -0.04126222       0.49487090       0.10021850       0.01305888       0.00794157      -0.07808240      -2.07936000       0.10562000      -0.00193000       0.10940000      -1.77960000       0.03389000      -0.15689000       0.24940000      -0.05365000
Se       0.01983337       4.77056792      11.83065716       0.85970762       0.07903844     -43.23866241       0.88785230       0.09800872       2.33555890      -0.62536888      -0.08191230      -0.01211960       0.88785230       0.09800872       2.33555890      -1.29620990      -9.53090690     -36.99256363      -0.00649352      -0.48665844      -0.01580674      -0.62536888      -0.08191230      -0.01211960      -0.00649352      -0.48665844      -0.01580674      -0.01086298       0.00209375      -0.68015345       1.03227000      -0.09881000      -0.00704000      -0.07764000       1.06789000       0.00668000       0.04342000      -0.03491000       0.01364000
Se      -0.14287923       4.59670520       8.31728836      24.88352934      19.82167338      29.63498183       8.44221805       7.07318420       4.40838641       0.61291956       0.08490552       0.13377623       8.44221805       7.07318420       4.40838641       8.15530118      28.25446695      25.80047422       0.04758989       0.29574041       0.06433735       0.61291956       0.08490552       0.13377623       0.04758989       0.29574041       0.06433735      -0.01472448      -0.02412319       0.97946155       0.71875000      -0.00244000      -0.00046000      -0.01762000       0.61475000       0.00202000      -0.14661000      -0.43353000       0.03555000
Mo      -3.37502855       6.65098889      10.23895486      68.27474386     -34.01418799      -4.34085486     -12.90988962      11.52388357      -0.66459058      -0.06768976      -0.00222155       0.73763841     -12.90988962      11.52388357      -0.66459058      10.53402215     -21.18164943      -9.62201981       0.01882240      -0.08001182      -0.10099372      -0.06768976      -0.00222155       0.73763841       0.01882240      -0.08001182      -0.10099372       0.03367833      -0.01041613       0.05985335      -1.60643000      -0.44951000       0.02253000      -0.00737000      -2.12523000      -0.04448000      -0.00067000      -0.21469000      -0.06701000
Se      -1.56861270       7.55858779      11.89578167     -27.37160562       7.23180131     -29.24749896      11.44010330      -5.56228487       1.64837233      -0.46653471       0.07276839       0.04252173      11.44010330      -5.56228487       1.64837233      -9.69480452      15.57753793     -25.00932221       0.06643346      -0.52764538       0.10382145      -0.46653471       0.07276839       0.04252173       0.06643346      -0.52764538       0.10382145       0.03726486      -0.03067577      -0.75884286       0.95576000      -0.03356000       0.02083000       0.00914000       0.95728000      -0.01164000      -0.22953000       0.21105000       0.02604000
Se      -1.81865136       7.71755080       8.48217179      19.11749559      -1.70343153      21.41773953       4.16381386       5.51477237      -0.45105920       0.18113693       0.10213514      -0.09341785       4.16381386       5.51477237      -0.45105920      13.96078895     -16.39588530      17.59766919       0.12914229       0.35448171      -0.21164598       0.18113693       0.10213514      -0.09341785       0.12914229       0.35448171      -0.21164598      -0.04339397       0.00564457       0.79039987       0.66199000       0.06085000       0.02134000       0.07624000       1.02818000      -0.01095000      -0.29334000       0.39523000       0.03815000
Mo       3.31020005       1.02008669      10.20757668      11.04955223     -36.50670680      15.33046305     -31.73668185       1.07371819      -1.55476024       0.63407391       0.14341988       0.10901805     -31.73668185       1.07371819      -1.55476024      11.87151846     -14.66447847      22.75067318       0.03072205       0.47772944      -0.38915005       0.63407391       0.14341988       0.10901805       0.03072205       0.47772944      -0.38915005      -0.01490700      -0.02372079       0.11766913      -1.42677000       0.39755000       0.01405000      -0.05110000      -1.98758000      -0.00786000      -0.12188000      -0.12834000      -0.06242000
Se       5.03708505       1.99083663      11.98182497     -21.29893616      -3.96871187     -27.09390333       4.73789273      -7.61395082      -3.23524208      -0.23393300      -0.02670526      -0.05132907       4.73789273      -7.61395082      -3.23524208     -20.03508594     -19.93287490     -22.04044050      -0.10704354      -0.19099274      -0.11171431      -0.23393300      -0.02670526      -0.05132907      -0.10704354      -0.19099274      -0.11171431       0.01001569       0.01484941      -0.78581909       0.90137000       0.21903000       0.00427000       0.19095000       0.88235000       0.01018000      -0.31963000      -0.06736000       0.03920000
Se       5.07369292       1.88722945       8.65465307     -16.22142984       4.77980679      10.85013842       4.70390619      -7.85801966       0.56396076       0.26114000      -0.06275411      -0.05245438       4.70390619      -7.85801966       0.56396076     -10.23077976      -2.05149406      11.96251118      -0.03198885       0.46113322       0.07558518       0.26114000      -0.06275411      -0.05245438      -0.03198885       0.46113322       0.07558518       0.02704698       0.01925625       0.59709510       1.09240000      -0.07891000       0.00531000      -0.09707000       1.32627000       0.00039000       0.39540000      -0.10316000       0.03288000
Mo       1.70458479       3.81521105      10.01851825     -86.51603455     -23.80991736      52.46989717      -9.06683126     -15.08799397       3.71785600       0.90626706       0.14884040      -0.72864717      -9.06683126     -15.08799397       3.71785600     -28.32852783       6.20894537      59.80276245       0.17320529       1.00062290       0.05058871       0.90626706       0.14884040      -0.72864717       0.17320529       1.00062290       0.05058871      -0.03733276      -0.02520133       0.16920108      -1.56703000       0.03599000      -0.03413000       0.27902000      -1.61296000       0.03075000      -0.12687000       0.11699000      -0.04859000
Se       3.28612372       4.82700916      11.88808514     -14.64140108       5.64681275     -34.75991059      -1.38335559      -2.03243439      -7.90815141      -0.30968711      -0.13406989      -0.17860062      -1.38335559      -2.03243439      -7.90815141     -13.71777361     -18.55885804     -41.96983793      -0.18130964      -0.30813216      -0.14054808      -0.30968711      -0.13406989      -0.17860062      -0.18130964      -0.30813216      -0.14054808      -0.01477210       0.00063920      -0.71720135       0.95772000       0.22027000      -0.00600000       0.17210000       0.95766000      -0.01036000      -0.14807000      -0.36738000       0.03024000
Se       3.28898525       4.75201730       8.37708450       7.75079494      13.91833801      22.68983843       3.97744511       4.73997119      -6.07961385       0.30439392      -0.18884324       0.02343144       3.97744511       4.73997119      -6.07961385       8.56650923      -2.23270214      33.00293660      -0.17314104       0.47594828       0.20339386       0.30439392      -0.18884324       0.02343144      -0.17314104       0.47594828       0.20339386       0.02401825       0.03547072       0.94214978       0.58745000      -0.11894000       0.00731000      -0.09923000       0.65541000       0.00700000       0.07405000       0.12784000       0.01327000
Mo      -0.05101420       6.65000216      10.06420408     -33.05525924     -12.11023519      33.56582542     -13.32715572     -11.17051819       2.12796737       0.37033103       0.00519887      -0.26725694     -13.32715572     -11.17051819       2.12796737      -6.79717912      -5.23788627      25.56269386       0.17868508       0.21817609      -0.00511719       0.37033103       0.00519887      -0.26725694       0.17868508       0.21817609      -0.00511719       0.00953578       0.02222120      -0.03764071      -1.66456000       0.08047000      -0.02228000       0.20984000      -2.04430000      -0.02996000      -0.27078000      -0.07900000      -0.06353000
Se       1.57699995       7.59016331      11.91620709       1.90533586       1.05949740     -29.54128658       5.82750396      -2.34748572      -2.98925494      -0.12831926      -0.04564407      -0.22435184       5.82750396      -2.34748572      -2.98925494      -2.65749104     -17.44585144     -24.54214740      -0.09606123      -0.09308238      -0.22882347      -0.12831926      -0.04564407      -0.22435184      -0.09606123      -0.09308238      -0.22882347      -0.03886232      -0.03787708      -0.73978463       1.15363000       0.11265000      -0.00886000       0.02149000       0.86296000      -0.00400000       0.17934000       0.01455000       0.03769000
Se       1.63077701       7.51714491       8.53338334       0.56196233      31.24145160       4.92954817      15.49679458      -1.65012283      -3.95438202       0.11615362      -0.07203182      -0.06144800      15.49679458      -1.65012283      -3.95438202      -0.54506417      34.95909795      22.17061967      -0.02086265       0.44271243       0.37388173       0.11615362      -0.07203182      -0.06144800      -0.02086265       0.44271243       0.37388173       0.02470662       0.02270347       0.72751927       0.84870000      -0.09818000      -0.00682000      -0.09438000       1.21417000       0.00303000      -0.07353000      -0.08166000       0.03848000
Mo       6.63431307       0.91194053      10.35282408      -9.17076043      -7.67880051     -33.79060022      -4.23017644      -5.67264563      -1.29501529      -0.76883504      -0.02817568      -0.14102629      -4.23017644      -5.67264563      -1.29501529      -3.62963541      20.10712011     -48.47777838      -0.02621708      -0.93273614       0.09312064      -0.76883504      -0.02817568      -0.14102629      -0.02621708      -0.93273614       0.09312064      -0.01807559       0.00939899      -0.07327524      -2.21570000       0.07585000       0.00587000      -0.58379000      -1.88062000      -0.00469000       0.05737000      -0.08802000      -0.07910000
Se       8.23440262       1.90804955      12.01379518      23.96938574       2.84224816     -24.50852799       1.89866000       4.14852964       3.97645516      -0.20077282       0.13822385      -0.05459490       1.89866000       4.14852964       3.97645516       8.48654718      -9.75003773     -28.65176343      -0.16589752      -0.35532869       0.07886665      -0.20077282       0.13822385      -0.05459490      -0.16589752      -0.35532869       0.07886665      -0.03972358       0.05280240      -0.86891445       0.82978000      -0.01837000      -0.02085000      -0.01350000       0.81358000       0.02542000       0.14152000      -0.03011000       0.03387000
Se       8.32202469       1.82032881       8.60640173     -12.61677650      -3.31995393      34.14196876      -1.43276539      -9.43939839       1.17151196       0.33509861      -0.16850367       0.28139410      -1.43276539      -9.43939839       1.17151196     -16.63982170     -23.83884439      30.99984657       0.04839106       0.30371698      -0.09277937       0.33509861      -0.16850367       0.28139410       0.04839106       0.30371698      -0.09277937       0.03800824      -0.00488402       0.62082785       1.20163000      -0.04465000      -0.01464000       0.02748000       1.03923000       0.00721000       0.29028000       0.08949000       0.04565000
Mo       4.91384185       3.83534044      10.24280313      67.53884099     -13.53647925     -19.45611681     -11.37174145      15.03200712       5.79074730      -0.59718454       0.06601738       0.18489437     -11.37174145      15.03200712       5.79074730      29.02980880      15.18176191     -20.42229200       0.10103444      -0.56009464       0.22345443      -0.59718454       0.06601738       0.18489437       0.10103444      -0.56009464       0.22345443       0.02771488       0.00800553      -0.05442025      -1.90487000      -0.25483000       0.02451000      -0.34605000      -1.53037000       0.01885000       0.10832000       0.38498000      -0.05581000
Se       6.61526908       4.69972034      11.95449241     -15.47077881      14.24205504     -37.46811801       4.78149424       0.72882057      -3.12492606      -0.42904519      -0.02737503      -0.22465128       4.78149424       0.72882057      -3.12492606      -2.95177191      14.98289590     -36.77950359       0.06044188      -0.26285167      -0.13834246      -0.42904519      -0.02737503      -0.22465128       0.06044188      -0.26285167      -0.13834246       0.00807161      -0.04062828      -0.79442746       0.86063000       0.10869000       0.00741000      -0.02364000       0.79151000      -0.01903000      -0.08900000       0.09621000       0.02747000
Se       6.55941988       4.67633472       8.41043615     -21.98197677      13.69478481      43.59432092       7.28746167       1.05715432       5.32668039       0.42301800       0.17644754      -0.15514995       7.28746167       1.05715432       5.32668039      -3.69302352       8.48253656      38.65919399      -0.00564063       0.33893978       0.23571346       0.42301800       0.17644754      -0.15514995      -0.00564063       0.33893978       0.23571346      -0.00235210       0.01266435       0.88138442       0.85730000       0.18034000       0.00713000       0.09202000       0.68833000      -0.00704000       0.19541000      -0.19804000       0.03238000
Mo       3.18873297       6.70259513      10.19810403      40.77912932     -25.27129746      10.49807573     -19.64921518      10.40742978       4.46766781       0.09721720       0.06510873       0.85705391     -19.64921518      10.40742978       4.46766781      13.92870803     -28.44452384      -0.61035008       0.01744477      -0.06489207      -0.49180609       0.09721720       0.06510873       0.85705391       0.01744477      -0.06489207      -0.49180609       0.04965117      -0.04396901      -0.04567862      -2.09598000      -0.23266000       0.00235000       0.34070000      -2.47104000      -0.01146000       0.54037000       0.16297000      -0.08952000
Se       4.86588652       7.49632480      11.90574770       0.98851366      18.20477423     -11.08739552      12.90446105       9.75070401      -1.28896148      -0.31346982      -0.17666583      -0.29581671      12.90446105       9.75070401      -1.28896148       9.08057221      29.57056863     -11.15472108       0.04871685      -0.22265038       0.06547965      -0.31346982      -0.17666583      -0.29581671       0.04871685      -0.22265038       0.06547965      -0.03870752      -0.03751025      -0.74600343       1.14619000       0.01221000      -0.00158000       0.10400000       1.13007000      -0.01262000       0.28784000       0.44105000       0.04644000
Se       4.93564869       7.64236159       8.63264888     -24.33738195       8.84578058      19.63680323       6.07727730       2.05451392       0.66462500      -0.04781369       0.05971312      -0.00145306       6.07727730       2.05451392       0.66462500      -4.75355586      -7.82457484      17.76264749      -0.21514200       0.14552600       0.12028240      -0.04781369       0.05971312      -0.00145306      -0.21514200       0.14552600       0.12028240       0.01780640       0.04177232       0.55649621       1.19222000      -0.08211000      -0.02336000       0.04610000       1.39655000      -0.01074000      -0.02440000       0.19746000       0.04615000
27
Lattice="9.563512763792708 0.0 0.0 -4.781756381896354 8.282002053444485 0.0 -0.0 0.0 19.182493901615413" Properties=species:S:1:pos:R:3:raman_tensor:R:27:born_effective_charge:R:9 susceptibility_tensor="_JSON [[-536.5927967726725, -0.8555201038390943, -0.008774876423117667], [-0.8555162348459624, -534.31067238289, -0.006135618576994492], [-0.0101230996235446, -0.010115119825210085, -32.47992264367142]]" pbc="T T T"
Mo       0.00994605       0.88204278       9.57355445       4.42247738     -16.81872398       8.33412243     -16.98675476       1.57942808      -0.52326072       0.26550693       0.09930543       0.03437349     -16.98675476       1.57942808      -0.52326072       0.21935702      39.15527267       8.30758174      -0.05497763       0.25568724       0.24327674       0.26550693       0.09930543       0.03437349      -0.05497763       0.25568724       0.24327674      -0.00525657       0.01037081      -0.00274361      -1.19953000       0.12167000      -0.03546000      -0.27528000      -1.19223000      -0.03285000       0.00569000       0.03102000      -0.09570000
S        1.57004189       1.83877660      11.14885627      -0.72854717       9.68130625      -4.56562977       7.60649100      -0.74468730       0.50215744      -0.08825181       0.03606898      -0.00814504       7.60649100      -0.74468730       0.50215744       0.40092350     -10.50275852      -3.94104317      -0.03074040      -0.06204726      -0.05819630      -0.08825181       0.03606898      -0.00814504      -0.03074040      -0.06204726      -0.05819630      -0.00904259      -0.01779286      -0.65880653       0.66659000       0.07403000      -0.01216000       0.01180000       0.52566000       0.00017000       0.07859000       0.00842000       0.07358000
S        1.57654508       1.84499288       8.03440271      -1.77982862      10.47888787       3.52116485       8.55279312      -1.47167240      -0.27897931      -0.11196334      -0.07276550      -0.04302664       8.55279312      -1.47167240      -0.27897931       0.69907249      -9.94601264       4.12139726       0.00347151      -0.01300070       0.06145665      -0.11196334      -0.07276550      -0.04302664       0.00347151      -0.01300070       0.06145665       0.01196139       0.01011831       0.60034754       0.57257000       0.01100000      -0.01593000      -0.04989000       0.60920000       0.00258000      -0.02721000       0.06060000       0.04510000
Mo      -1.56765101       3.69304609       9.56867706     -19.15306949     -23.33949780       5.38931865     -13.96743600      -4.08813013      -0.03375025       0.20859331      -0.07842385      -0.27612004     -13.96743600      -4.08813013      -0.03375025      -1.89391503      19.41305559       4.72034852       0.00716643       0.16334344       0.03435830       0.20859331      -0.07842385      -0.27612004       0.00716643       0.16334344       0.03435830      -0.01439285      -0.00329164       0.09805423      -1.35182000      -0.11651000      -0.04192000       0.22867000      -1.19791000       0.01115000      -0.08507000      -0.02362000      -0.10211000
S       -0.01654488       4.64260727      11.12140899       1.73279234       8.87491280      -2.48628888       7.53317165      -2.16360514      -0.01570792       0.11985931       0.00486584       0.00678089       7.53317165      -2.16360514      -0.01570792      -0.80780301     -14.78996262      -4.48306225      -0.01586547      -0.02279786      -0.00250534       0.11985931       0.00486584       0.00678089      -0.01586547      -0.02279786      -0.00250534      -0.01905654       0.00667414      -0.59037091       0.57619000       0.03245000      -0.00046000       0.09939000       0.56773000       0.01575000       0.01857000      -0.09291000       0.06214000
S       -0.01071113       4.56849005       7.97290932       4.19950225      12.32478570       7.37052185       8.32809788      -1.08206969      -0.15312935      -0.01373764      -0.05575985       0.04830771       8.32809788      -1.08206969      -0.15312935       0.67404703      -4.21387288      11.55539684      -0.04571147       0.06402792       0.01799956      -0.01373764      -0.05575985       0.04830771      -0.04571147       0.06402792       0.01799956       0.01596628       0.00719560       0.70297735       0.35702000      -0.03885000      -0.00430000       0.02717000       0.39889000       0.01345000       0.04603000      -0.03635000       0.04319000
W       -3.18407594       6.43031471       9.61592081       9.03427928     -12.15954428      -4.88281081     -14.78069996       3.25391872      -0.84577817      -0.15256618      -0.03308670       0.15389540     -14.78069996       3.25391872      -0.84577817      -0.66803829       9.74193533      -2.74232744       0.05201291      -0.14269762      -0.01887719      -0.15256618      -0.03308670       0.15389540       0.05201291      -0.14269762      -0.01887719       0.01206921       0.00678204      -0.10877693      -0.28862000      -0.26595000      -0.05248000       0.14174000      -0.22448000      -0.06407000       0.01636000      -0.03179000      -0.11819000
S       -1.60112331       7.39249973      11.15889796       1.28808931       5.71365868     -10.75278528      11.62539899       0.86785732       0.08969301      -0.12062521      -0.02295528       0.03237842      11.62539899       0.86785732       0.08969301       0.49366576      -4.59024362      -6.92872449      -0.04063301       0.09472864       0.06669009      -0.12062521      -0.02295528       0.03237842      -0.04063301       0.09472864       0.06669009      -0.01151242      -0.00995743      -0.64023351       0.36593000       0.03247000      -0.00572000      -0.02826000       0.40106000      -0.02580000       0.01828000       0.00463000       0.05206000
S       -1.64788888       7.39642077       7.96917955       2.46824449       4.39526902      12.48273738      10.01533943       0.69536363       0.21344552       0.12940653       0.03419407       0.00438506      10.01533943       0.69536363       0.21344552       1.42908724      -6.62403889       8.55469438       0.05376263      -0.00935096       0.06599046       0.12940653       0.03419407       0.00438506       0.05376263      -0.00935096       0.06599046       0.00516886       0.01022578       0.69667336       0.29314000       0.02632000      -0.00617000      -0.02146000       0.27981000      -0.01934000      -0.07873000       0.04867000       0.03878000
Mo       3.16829614       0.93827624       9.56504293       4.24186437     -10.43758620       8.92688445     -20.46745723       3.25305407       0.18282317       0.33009384      -0.03873342       0.05075007     -20.46745723       3.25305407       0.18282317      -0.06232852      26.78943971       6.06454127       0.03903768       0.24039696       0.01238327       0.33009384      -0.03873342       0.05075007       0.03903768       0.24039696       0.01238327       0.01428511      -0.00547011       0.25607508      -1.10195000      -0.13574000       0.01202000       0.00293000      -1.23390000      -0.02194000       0.01263000      -0.01033000      -0.09243000
S        4.80260484       1.83016944      11.18395437      -6.78783743       8.02240771     -10.75320966       9.14302316      -2.99637804       0.81453492      -0.08431579       0.08098783      -0.06312205       9.14302316      -2.99637804       0.81453492      -0.66929739      -6.43790264      -7.93626627       0.09708582      -0.05306040       0.02085278      -0.08431579       0.08098783      -0.06312205       0.09708582      -0.05306040       0.02085278       0.01247699       0.00584077      -0.68558087       0.45897000       0.00354000       0.02784000      -0.04494000       0.36273000       0.00992000      -0.14077000       0.07666000       0.05414000
S        4.76683730       1.85140044       8.00399074       0.35689621       9.00819322       7.17499484       9.41161696      -0.93498066      -2.22436165       0.04761254      -0.05701186      -0.02026035       9.41161696      -0.93498066      -2.22436165       2.39201338      -5.54093792       6.82354622      -0.07776573       0.03256719       0.07646130       0.04761254      -0.05701186      -0.02026035      -0.07776573       0.03256719       0.07646130      -0.00878855      -0.01135678       0.65408874       0.45603000      -0.01522000       0.02108000      -0.07355000       0.40275000       0.01077000       0.02709000      -0.01234000       0.04450000
Mo       1.57300658       3.69371553       9.61496446      19.25880410     -22.95141980      -6.74419136     -16.20271628       8.32065651       0.60064462      -0.24381458       0.01585451       0.38629148     -16.20271628       8.32065651       0.60064462       3.18794478      16.77547180      -7.16276923       0.11189815      -0.24254113      -0.01044035      -0.24381458       0.01585451       0.38629148       0.11189815      -0.24254113      -0.01044035       0.01002505       0.00194844       0.03371404      -1.22350000       0.07051000      -0.00247000       0.01307000      -1.28680000       0.03553000      -0.05840000       0.06166000      -0.08807000
S        3.19478707       4.61888976      11.21226236      -0.52464511       5.19196595      -8.09014298       7.33514096       0.17484190      -1.12920861      -0.06689052       0.00034684      -0.02241869       7.33514096       0.17484190      -1.12920861      -2.25376154     -10.08089966      -6.74740362      -0.01491167      -0.11297478      -0.02942514      -0.06689052       0.00034684      -0.02241869      -0.01491167      -0.11297478      -0.02942514       0.01291372       0.00634765      -0.70616489       0.45216000      -0.02458000       0.01368000       0.00815000       0.56603000       0.01121000       0.05312000      -0.01971000       0.05008000
S        3.22366888       4.60186671       8.06414523      -3.61034197       8.60735953       4.09249980       8.80632776      -0.93977559       2.10398874       0.05110820       0.01912996      -0.08280559       8.80632776      -0.93977559       2.10398874      -3.55525583      -6.93433045       5.97769934       0.01557680       0.03831432      -0.01796975       0.05110820       0.01912996      -0.08280559       0.01557680       0.03831432      -0.01796975      -0.01391578      -0.00887470       0.59682977       0.59749000      -0.02300000       0.01023000       0.01062000       0.74274000       0.01157000       0.02778000      -0.00670000       0.05893000
W       -0.01281511       6.46636916       9.56485166     -13.25464615     -17.59781364       0.09208988     -17.74517498      -4.37835515       0.51633088      -0.07652280       0.10269381      -0.28034199     -17.74517498      -4.37835515       0.51633088       1.02565121      -1.57190208      -2.28038068      -0.07728567      -0.14657793      -0.25815738      -0.07652280       0.10269381      -0.28034199      -0.07728567      -0.14657793      -0.25815738      -0.00235816      -0.01253961      -0.08108829      -0.59853000       0.25234000      -0.00048000      -0.36771000      -0.31219000      -0.01011000      -0.02430000      -0.07015000      -0.13395000
S        1.54536803       7.35175917      11.16377535       8.98179242      12.78516917      -3.73286800       9.40050800       3.36086400      -0.20814952       0.11318607      -0.04393117       0.09295233       9.40050800       3.36086400      -0.20814952       2.41485748      -8.41595234      -8.84384258      -0.05380786       0.06493974      -0.01915268       0.11318607      -0.04393117       0.09295233      -0.05380786       0.06493974      -0.01915268       0.00193584      -0.00379496      -0.63943009       0.35042000      -0.01276000      -0.00293000       0.03207000       0.38164000       0.01063000       0.11194000       0.05445000       0.04390000
S        1.55340138       7.32479006       7.97625655      13.44032691      12.48491611       6.13745618       8.78373562       4.90801732      -1.19709425      -0.00503900       0.02705883       0.23300873       8.78373562       4.90801732      -1.19709425       4.87904779      -4.99938719      10.32547379       0.03480207       0.15548265       0.04923959      -0.00503900       0.02705883       0.23300873       0.03480207       0.15548265       0.04923959      -0.01248650       0.00331275       0.70887809       0.24572000      -0.00422000       0.00917000       0.03568000       0.28867000       0.00395000      -0.06419000      -0.04964000       0.04674000
W        6.38182770       0.90805554       9.58579575     -22.91132268      -8.09132057      -3.80695907     -14.44476630     -10.10619842      -0.00597819      -0.20393335      -0.09378118      -0.34489965     -14.44476630     -10.10619842      -0.00597819      -8.20414618      24.83461839      -3.87094615       0.03519927      -0.26427962       0.01997134      -0.20393335      -0.09378118      -0.34489965       0.03519927      -0.26427962       0.01997134      -0.01849647       0.00250763      -0.11841723      -0.37116000      -0.05587000       0.05965000       0.26838000      -0.37550000      -0.00196000       0.05739000       0.07138000      -0.10731000
S        7.92796081       1.84384526      11.12332170      15.07188647       7.83128867      -4.35259399       9.32282485       5.16489992       0.78229721      -0.01357437      -0.03771140       0.21023620       9.32282485       5.16489992       0.78229721       5.05759504     -13.13055543      -2.25156198       0.00728667       0.06472963      -0.04966957      -0.01357437      -0.03771140       0.21023620       0.00728667       0.06472963      -0.04966957       0.00300957       0.01120483      -0.59081229       0.52010000      -0.05532000      -0.02090000      -0.01060000       0.46665000      -0.01233000       0.09420000      -0.07134000       0.04902000
S        7.97788235       1.83217778       8.03029040       4.75498100       8.86077021       2.98708590       9.51626477       2.03348932      -0.04391821      -0.06197393       0.05250996       0.13864757       9.51626477       2.03348932      -0.04391821       0.72488745     -13.42179484       1.46115419       0.02106466      -0.09282130       0.01645322      -0.06197393       0.05250996       0.13864757       0.02106466      -0.09282130       0.01645322      -0.00028693       0.00208278       0.63240250       0.46631000      -0.00166000      -0.00526000       0.05514000       0.42422000      -0.00485000      -0.00576000       0.06690000       0.05802000
Mo       4.79916198       3.68922068       9.61190414       3.50785455     -22.08838424       4.00438603     -17.41710970       2.04996674      -0.94220264       0.15086227       0.08743411       0.01199065     -17.41710970       2.04996674      -0.94220264       1.22956657      12.24663580       0.62028881      -0.08919759       0.11614643       0.09554352       0.15086227       0.08743411       0.01199065      -0.08919759       0.11614643       0.09554352       0.01173460      -0.00446496      -0.05710072      -0.96448000       0.19028000       0.04307000      -0.18989000      -1.14352000       0.03868000       0.08315000      -0.03623000      -0.08293000
S        6.44045204       4.59192065      11.21321872      -2.60111924       8.05228584     -11.83771687       5.51313280       0.08449685       0.26199482      -0.03563622       0.00031219       0.01127755       5.51313280       0.08449685       0.26199482      -1.48764765      -8.72472619     -12.30143072      -0.02079676      -0.10374447      -0.05736579      -0.03563622       0.00031219       0.01127755      -0.02079676      -0.10374447      -0.05736579       0.00237495       0.00176098      -0.68941276       0.40510000      -0.02585000      -0.01221000      -0.04568000       0.30422000       0.01812000      -0.12810000       0.08030000       0.03322000
S        6.41004007       4.61095204       8.03143802      -3.63329652       9.06950925       7.71269532       6.04295114      -0.22468617       0.08899002      -0.05664175       0.01681273      -0.00370327       6.04295114      -0.22468617       0.08899002      -1.56215623     -11.80672225       8.20866744       0.03194326       0.05291297      -0.10174489      -0.05664175       0.01681273      -0.00370327       0.03194326       0.05291297      -0.10174489      -0.00318932       0.00200536       0.64496349       0.50383000      -0.00287000      -0.00638000      -0.01946000       0.51311000       0.00563000       0.04962000       0.00282000       0.06146000
Mo       3.20023828       6.43347067       9.62041566       1.22745562     -26.29713435      -2.14002778     -25.38516522      -1.81737101       2.07023290      -0.03647034      -0.01390006      -0.00332568     -25.38516522      -1.81737101       2.07023290      -3.47075596       4.02286449      -2.67419335       0.05337196      -0.00377669      -0.15340659      -0.03647034      -0.01390006      -0.00332568       0.05337196      -0.00377669      -0.15340659      -0.01355241       0.00376490       0.01058681      -1.14250000      -0.06251000       0.02133000       0.14865000      -1.21145000       0.01314000      -0.03425000       0.00140000      -0.09639000
S        4.83626840       7.34678614      11.20011670     -11.56425462       8.78834904      -7.81423025       9.65423892      -3.12314964      -0.69309799       0.00137848       0.00583162      -0.15168497       9.65423892      -3.12314964      -0.69309799      -1.28921434      -5.70095791      -8.22015124       0.07418581       0.05476107       0.00271840       0.00137848       0.00583162      -0.15168497       0.07418581       0.05476107       0.00271840       0.01040681      -0.01009573      -0.67642914       0.37477000       0.00816000       0.01030000       0.01913000       0.44815000      -0.01224000      -0.14114000      -0.01330000       0.03652000
S        4.80384810       7.31713925       8.05859840      -7.35349839       9.77523196       3.66494303      11.13004278      -1.42110089      -0.13314925      -0.01636052      -0.03665414      -0.07511127      11.13004278      -1.42110089      -0.13314925       0.86131160      -6.98498657       4.08460893      -0.11883351      -0.10140833       0.00064689      -0.01636052      -0.03665414      -0.07511127      -0.11883351      -0.10140833       0.00064689       0.00803010      -0.00426507       0.61024857       0.57974000       0.01812000      -0.00313000       0.02413000       0.49472000      -0.00674000       0.08748000      -0.09451000       0.06569000
27
Lattice="9.501053977890738 0.0 0.0 -4.750526988945369 8.22791274485338 0.0 -0.0 0.0 19.57312129985271" Properties=species:S:1:pos:R:3:raman_tensor:R:27:born_effective_charge:R:9 susceptibility_tensor="_JSON [[-586.9139198267909, -0.7509467728222078, -0.14648598842503144], [-0.7511232059250394, -587.3330566924126, 0.11303846074010805], [-0.1138402633502852, 0.10206161862811573, -33.79786769487629]]" pbc="T T T"
Mo      -0.07600843       0.94202950       9.72784414      29.34853546     -13.63867193      31.12511750     -18.89049765       2.14409185       0.96392563       0.83511663       0.02422432       0.22171905     -18.89049765       2.14409185       0.96392563      11.16694238      11.22090772      24.19463688       0.10498409       0.93761131      -0.24416702       0.83511663       0.02422432       0.22171905       0.10498409       0.93761131      -0.24416702       0.03644997      -0.01056186       0.07697920      -1.42228000       0.22689000      -0.00727000      -0.17043000      -1.23007000       0.01186000       0.02271000       0.25558000      -0.05650000
S        1.60216273       1.83341839      11.33200209     -10.72569144       2.91412080     -21.82763413       4.59021775       0.86665853      -1.33634710      -0.12088876      -0.04832570      -0.20612300       4.59021775       0.86665853      -1.33634710      -3.37810999     -17.68273252     -16.43811538       0.06520977       0.04635330      -0.25880120      -0.12088876      -0.04832570      -0.20612300       0.06520977       0.04635330      -0.25880120      -0.01910169      -0.02240289      -0.49322546       0.81762000       0.21816000       0.00048000       0.01417000       0.72469000       0.00396000      -0.00597000      -0.05987000       0.01622000
Se       1.48130933       1.76548585       8.04672765      15.07750340      11.27607151      22.02062406       7.50679777      -1.77782173      -2.08094026       0.29979252      -0.02681154      -0.01359164       7.50679777      -1.77782173      -2.08094026       1.13271182       0.89557038      22.11663576      -0.12736604       0.24277800       0.03927102       0.29979252      -0.02681154      -0.01359164      -0.12736604       0.24277800       0.03927102       0.00720862      -0.00334658       0.88998709       0.89466000      -0.08208000      -0.00025000      -0.14216000       0.98948000      -0.00295000      -0.17959000      -0.25700000       0.07074000
Mo      -1.54116597       3.68517381       9.81981434     -40.39024357       6.97139282      -8.49979660      -4.43066963     -11.71425860      -1.89162659      -0.24231410       0.15503581      -0.51810517      -4.43066963     -11.71425860      -1.89162659     -24.23483387      38.20457025      -7.80886955       0.13346304      -0.39225092       0.10383739      -0.24231410       0.15503581      -0.51810517       0.13346304      -0.39225092       0.10383739      -0.02604707       0.02781294      -0.05212965      -1.36049000      -0.12565000       0.01091000      -0.34684000      -1.64857000      -0.01091000      -0.08185000      -0.06699000      -0.06006000
Se       0.03648405       4.61751223      11.52344833       4.53624084      -2.62310619     -22.73953647       0.94018618       5.50901636      -0.46058608      -0.34182539       0.00966348       0.23467400       0.94018618       5.50901636      -0.46058608       2.72646367      -9.73726471     -25.81705049       0.03255107      -0.63514850      -0.01051843      -0.34182539       0.00966348       0.23467400       0.03255107      -0.63514850      -0.01051843       0.01103584      -0.00367617      -0.93100161       0.84288000      -0.00310000      -0.00543000       0.01830000       0.86858000      -0.00440000      -0.05212000      -0.15041000       0.05657000
Se       0.01311145       4.63337899       8.13052694      12.59950454      -0.28206711      25.14595785      -0.02383734       3.08091672      -2.19217558       0.22171058      -0.01147255       0.00539928      -0.02383734       3.08091672      -2.19217558       7.62321136     -11.42781254      29.06792534       0.01205701       0.39979795      -0.16558620       0.22171058      -0.01147255       0.00539928       0.01205701       0.39979795      -0.16558620      -0.01027535       0.00544347       0.76564263       1.14157000      -0.12479000       0.00545000      -0.09177000       1.31668000       0.00155000      -0.05541000       0.23992000       0.07664000
Mo      -3.17211689       6.41435156       9.74485102       9.61046259     -10.61066062       7.22578461     -15.22782291       9.30869442       2.62881078       0.19188463       0.11399863      -0.04551536     -15.22782291       9.30869442       2.62881078      12.94083270      14.95991352       7.05310229       0.03024513      -0.01263030       0.24408430       0.19188463       0.11399863      -0.04551536       0.03024513      -0.01263030       0.24408430       0.00370848       0.02157903      -0.02206902      -1.64712000      -0.25172000      -0.00585000      -0.23841000      -1.17094000      -0.00912000      -0.02318000      -0.26811000      -0.05893000
S       -1.61318395       7.29253398      11.40658536       9.05645851       8.85483625     -27.43214824       6.31204287      -6.15153247      -3.96776348      -0.00133378       0.03993235      -0.07679400       6.31204287      -6.15153247      -3.96776348      -9.26498546      -1.87618913     -32.94398422      -0.13913085      -0.07303083       0.05771296      -0.00133378       0.03993235      -0.07679400      -0.13913085      -0.07303083       0.05771296      -0.02413659       0.00829129      -0.55991431       0.45312000       0.00780000      -0.00033000       0.17875000       0.55640000       0.00464000       0.06455000       0.13008000       0.01710000
Se      -1.58401572       7.31875689       7.99646707      -4.46659269       5.11461883      32.16942211       2.58664339      -0.16921455      -1.80836859       0.33290397      -0.06361298      -0.01366635       2.58664339      -0.16921455      -1.80836859       0.92310967      -3.74589056      35.11332669      -0.00270742       0.34875680      -0.02090823       0.33290397      -0.06361298      -0.01366635      -0.00270742       0.34875680      -0.02090823       0.02043312      -0.00496858       0.98561148       0.59911000      -0.11642000      -0.00038000      -0.12512000       0.70232000       0.00218000       0.12523000      -0.04212000       0.05535000
Mo       3.12109623       0.88768347       9.72166845       5.21008352     -17.96652787       8.33007681     -13.26380764       8.61180140      -0.76798615       0.16128431       0.06301479       0.24000290     -13.26380764       8.61180140      -0.76798615       2.46492282      -4.77015090       8.03427706       0.01572883       0.13791185       0.12175430       0.16128431       0.06301479       0.24000290       0.01572883       0.13791185       0.12175430       0.01069027      -0.00138371       0.03775680      -1.29357000      -0.13628000       0.01391000       0.16315000      -1.89936000       0.01944000       0.08568000       0.23325000      -0.06928000
Se       4.72629930       1.66772000      11.47223765      -2.05267042      20.85010497     -19.46106720      10.39294794       3.02006040       0.73466488      -0.55952541      -0.11268013      -0.06686103      10.39294794       3.02006040       0.73466488       8.95978579      28.13851637     -24.97603857      -0.02725950      -0.54772584       0.30972936      -0.55952541      -0.11268013      -0.06686103      -0.02725950      -0.54772584       0.30972936      -0.01442286      -0.00740453      -0.89437462       0.95564000       0.03711000      -0.00036000       0.06598000       0.96199000      -0.00731000       0.09693000       0.36524000       0.05331000
S        4.74587147       1.79180377       8.23380340       0.30453532      17.02932655       2.17190567       9.19244629       3.54609602      -1.14096719      -0.03000608       0.08333945       0.10465628       9.19244629       3.54609602      -1.14096719       6.66485944       7.91086196      11.03958572      -0.03075081       0.03496613       0.16604243      -0.03000608       0.08333945       0.10465628      -0.03075081       0.03496613       0.16604243      -0.00436174      -0.01062376       0.49216956       0.80663000      -0.04858000      -0.00401000       0.03284000       0.84794000       0.00606000      -0.05977000      -0.15247000       0.03203000
Mo       1.62810061       3.58674289       9.78475545      -3.92338929     -12.19056751      -8.36399299       3.95526108      -5.85960466       2.50397926      -0.16545401       0.06909907      -0.17002108       3.95526108      -5.85960466       2.50397926       1.82361658      47.23960432      -8.06184766       0.00314473      -0.25313192       0.72952890      -0.16545401       0.06909907      -0.17002108       0.00314473      -0.25313192       0.72952890      -0.03217399       0.03466210      -0.04071476      -1.75192000       0.24385000      -0.01451000      -0.22564000      -1.60167000      -0.01286000       0.00760000      -0.06156000      -0.07556000
S        3.18275807       4.49599375      11.41124088       7.22647711       7.14222174     -14.83718826       7.69799004      -3.31205790      -0.99266623      -0.00393046       0.17354165      -0.03779046       7.69799004      -3.31205790      -0.99266623      -5.29709312     -12.66079964     -11.47679055      -0.14423934       0.12800122      -0.07994696      -0.00393046       0.17354165      -0.03779046      -0.14423934       0.12800122      -0.07994696      -0.00827383      -0.01302344      -0.58299472       0.75236000      -0.01709000       0.00083000      -0.03852000       0.51489000       0.00112000       0.10421000       0.09062000       0.02370000
S        3.18950382       4.53960359       8.16929124      -2.45122821      11.54367010      20.46293543       8.25293130       0.37337269       1.60942357       0.23296887      -0.14878491      -0.04054661       8.25293130       0.37337269       1.60942357       0.96781671      -4.24413694      20.18086108       0.17245491       0.22042480      -0.00571375       0.23296887      -0.14878491      -0.04054661       0.17245491       0.22042480      -0.00571375      -0.02219104       0.00933282       0.63752594       0.49746000       0.12693000       0.00053000      -0.14040000       0.57529000      -0.00571000       0.06146000      -0.05526000       0.01083000
Mo       0.04066451       6.46318698       9.82513493     -31.59827571      -6.33700659     -13.27293949     -11.05664155      -8.06050662       3.29242909      -0.35932148      -0.08128893      -0.27759304     -11.05664155      -8.06050662       3.29242909     -13.85300559      -7.77747195     -14.61720454       0.11332579      -0.18782319      -0.53276791      -0.35932148      -0.08128893      -0.27759304       0.11332579      -0.18782319      -0.53276791      -0.03010512      -0.04434378      -0.06321239      -1.58563000       0.05365000      -0.01436000       0.51291000      -1.71901000      -0.02353000      -0.01269000      -0.25325000      -0.07310000
S        1.61270890       7.27248676      11.39632423      -8.48124839      20.08023099      -7.47178505       8.83189395       5.13841914      -1.01618776       0.27470847      -0.23498482      -0.10170793       8.83189395       5.13841914      -1.01618776       6.30894907       0.86065057     -15.66772411       0.06035018       0.10293987       0.16670071       0.27470847      -0.23498482      -0.10170793       0.06035018       0.10293987       0.16670071      -0.02626706       0.02711271      -0.53359029       0.71293000       0.18108000      -0.00353000       0.01855000       0.93251000      -0.00669000       0.11473000      -0.06038000       0.02814000
S        1.55988304       7.31619161       8.15731991      15.15971588       5.59062693      30.11848588       6.35358958       4.90077705       1.69122162       0.33070043       0.15396878       0.14249758       6.35358958       4.90077705       1.69122162      11.23373116     -10.02049517      24.01116431      -0.13847644       0.18828290       0.00896494       0.33070043       0.15396878       0.14249758      -0.13847644       0.18828290       0.00896494      -0.01771225      -0.01959760       0.64847828       0.60843000      -0.01900000       0.00509000      -0.03929000       0.40074000       0.00498000      -0.09818000       0.07086000       0.00540000
Mo       6.37245191       0.92283737       9.78086002     -13.85611551     -20.82899669       8.57755244      -6.40985007     -10.58607389       4.08226278       0.05140202      -0.05314478       0.07045686      -6.40985007     -10.58607389       4.08226278     -11.44083563       9.71955009      10.82609791      -0.02298183       0.08294428       0.02399327       0.05140202      -0.05314478       0.07045686      -0.02298183       0.08294428       0.02399327      -0.00993441      -0.00606616       0.01955219      -1.31019000      -0.28471000      -0.00859000       0.14228000      -1.28590000       0.03243000       0.02198000       0.13623000      -0.05246000
S        7.93708548       1.91740770      11.48886449       2.26400648      -0.00815672     -31.44216979       5.93954769      -3.37535758      -2.89352945      -0.31670905       0.00259997       0.11300998       5.93954769      -3.37535758      -2.89352945      -8.17939180     -13.92496996     -24.90569051      -0.08790562      -0.14501329      -0.11594813      -0.31670905       0.00259997       0.11300998      -0.08790562      -0.14501329      -0.11594813       0.01795981      -0.01464055      -0.70363398       0.39546000      -0.16348000       0.00923000       0.09355000       0.32693000       0.00270000       0.09361000      -0.12852000      -0.01686000
S        7.86174212       1.92158817       8.08340171      -0.11116802      -1.99923105      31.86125989       7.05157409       3.18420395      -1.91094347       0.09035712      -0.04685203       0.08128557       7.05157409       3.18420395      -1.91094347       4.21731849     -17.75658896      26.58476612       0.10672990       0.23038391       0.04913045       0.09035712      -0.04685203       0.08128557       0.10672990       0.23038391       0.04913045       0.01648270       0.02816442       0.71822921       0.28650000      -0.00823000      -0.00139000       0.06320000       0.42059000       0.00046000      -0.02690000       0.23552000       0.00856000
Mo       4.78188047       3.71994766       9.77230907     -13.22507212     -24.53424097       3.64193342     -37.36532524      -5.58065106      -2.28045934       0.17000207      -0.18240880      -0.40110253     -37.36532524      -5.58065106      -2.28045934       5.73012318     -29.77401869       5.70502603      -0.04123750       0.28113926      -0.84935558       0.17000207      -0.18240880      -0.40110253      -0.04123750       0.28113926      -0.84935558      -0.00450758      -0.05191447      -0.00120594      -1.39366000       0.16492000       0.01638000       0.16723000      -1.24166000      -0.01104000       0.07511000       0.18628000      -0.05832000
S        6.30119401       4.71005250      11.28202655      13.14114422      -2.64371891      -7.35793921       5.91852893       6.01334088       5.62999443       0.13895333       0.02616044       0.27553927       5.91852893       6.01334088       5.62999443       9.88026190     -25.86606697      -5.26312423       0.06333963       0.07618441       0.06271731       0.13895333       0.02616044       0.27553927       0.06333963       0.07618441       0.06271731       0.00256075       0.02835247      -0.43127655       0.86635000       0.07390000      -0.00890000      -0.07452000       0.99804000       0.00612000       0.00573000      -0.24889000       0.02525000
S        6.37283196       4.60088539       8.13774774      -6.46493486       6.50571556      17.77447029      10.50998621      -7.45348330      -3.15680340       0.12301175      -0.03888397       0.15578413      10.50998621      -7.45348330      -3.15680340      -6.34877960      -5.61397577      19.12193688      -0.20742994       0.05067003      -0.03048750       0.12301175      -0.03888397       0.15578413      -0.20742994       0.05067003      -0.03048750       0.04343435       0.00035609       0.65244147       0.51918000      -0.07190000      -0.00085000       0.02368000       0.44984000      -0.00608000       0.28199000      -0.10954000       0.01795000
Mo       3.09477831       6.33121734       9.90969431      46.54910709     -14.42863560     -32.23393842      -9.18333908      19.36797855       0.52214161      -0.85241920       0.06565094       0.64210685      -9.18333908      19.36797855       0.52214161       5.81179039      38.74257948     -28.06919502       0.04177617      -0.74028791       0.22605723      -0.85241920       0.06565094       0.64210685       0.04177617      -0.74028791       0.22605723       0.05189497       0.02788525      -0.04526226      -1.13053000       0.08381000       0.00342000      -0.04740000      -1.27678000      -0.00254000      -0.16230000      -0.19462000      -0.05242000
Se       4.85560865       7.32122716      11.55869724     -27.97951417       5.43037993     -32.26168322       5.32655054      -8.52128079       0.14716268      -0.60880331       0.11880424      -0.23359014       5.32655054      -8.52128079       0.14716268     -13.81822761      -1.57779194     -29.03378250      -0.02341098      -0.46056551      -0.00887103      -0.60880331       0.11880424      -0.23359014      -0.02341098      -0.46056551      -0.00887103       0.02794760       0.00902041      -1.01290224       0.69367000      -0.06599000       0.01097000      -0.01504000       0.77040000       0.00585000      -0.30801000       0.10667000       0.04791000
S        4.65048089       7.32711782       8.29869560      -4.29254709      -0.88321496       6.50387453       4.74618534      -2.34395911       3.99238339       0.12751008      -0.04927199      -0.14231905       4.74618534      -2.34395911       3.99238339      -5.02042545     -20.76393711       2.03989351       0.03942401      -0.08548044      -0.05791748       0.12751008      -0.04927199      -0.14231905       0.03942401      -0.08548044      -0.05791748       0.00072161      -0.01146290       0.44855863       1.05184000       0.10092000      -0.00120000       0.20097000       0.71664000      -0.00022000      -0.09556000       0.05871000       0.02779000
27
Lattice="9.830985383755005 0.0 0.0 -4.915492691877502 8.513633342331834 0.0 -0.0 0.0 19.99819046763443" Properties=species:S:1:pos:R:3:raman_tensor:R:27:born_effective_charge:R:9 susceptibility_tensor="_JSON [[-659.3603315583433, 2.2971458179119333, -0.0179394380739727], [2.297146217501448, -657.2875828247122, 0.058484986969681074], [-0.018435728251452004, 0.059795906971493014, -36.59558842640809]]" pbc="T T T"
Mo      -0.02782169       0.98683431       9.98179270      23.73211118     -17.80491189       3.05512039     -24.62272154      11.68462980      -1.53793689       0.01716950       0.00903365       0.47890975     -24.62272154      11.68462980      -1.53793689      10.20987077      -6.53990663       2.68960601      -0.13337231      -0.01157688      -0.09490239       0.01716950       0.00903365       0.47890975      -0.13337231      -0.01157688      -0.09490239       0.03557341      -0.02737005       0.08807460      -1.30683000      -0.30621000       0.00415000      -0.27269000      -1.86035000       0.00988000       0.10749000      -0.05330000      -0.08636000
Se       1.68571906       1.83062779      11.72630106     -18.70197311      14.35200739     -20.80781822      10.95815390      -3.22258942      -2.47654444      -0.35843200      -0.03754462      -0.17515837      10.95815390      -3.22258942      -2.47654444      -7.28956972      15.29830075     -25.91980575      -0.01318336      -0.37436078       0.15125386      -0.35843200      -0.03754462      -0.17515837      -0.01318336      -0.37436078       0.15125386       0.03561493      -0.00660203      -0.85842698       0.88549000      -0.07537000       0.00112000      -0.09741000       0.89486000       0.00430000      -0.16404000       0.20594000       0.04174000
S        1.67500329       1.91104525       8.43832799      -6.09558001       4.80449597       4.54903396       6.96584842       0.18903712       3.81502101      -0.11059412       0.11790321      -0.03197566       6.96584842       0.18903712       3.81502101      -5.43464275     -17.12619454       6.19701892       0.08129037      -0.01913106      -0.04271207      -0.11059412       0.11790321      -0.03197566       0.08129037      -0.01913106      -0.04271207      -0.02103959       0.01776227       0.52395886       0.55053000       0.09795000      -0.00924000       0.09972000       0.65904000       0.00009000      -0.06207000       0.06979000       0.02276000
Mo      -1.68444104       3.78374965       9.94453326      30.08781094     -25.23591053      15.59293534     -17.16670122       8.25317459       0.96908002       0.25078733      -0.02077461       0.42478420     -17.16670122       8.25317459       0.96908002      13.53502859      29.68326751       9.74602342      -0.02922548       0.14312780      -0.04706682       0.25078733      -0.02077461       0.42478420      -0.02922548       0.14312780      -0.04706682       0.03506386       0.01777585       0.00724321      -1.53034000      -0.20520000      -0.00115000      -0.41412000      -1.04051000       0.00446000       0.03834000       0.04932000      -0.07212000
Se      -0.01110901       4.68348144      11.66446416      -0.33191645       4.36042115     -20.65158148       4.81872030       0.10098001      -2.06767655      -0.36891805      -0.04691490      -0.02896165       4.81872030       0.10098001      -2.06767655      -0.79752180      -6.23662991     -14.67350073      -0.05182388      -0.26363819       0.07438918      -0.36891805      -0.04691490      -0.02896165      -0.05182388      -0.26363819       0.07438918      -0.00814606       0.00747319      -0.77435297       0.96557000      -0.00116000      -0.00310000      -0.03938000       0.86718000       0.00348000       0.03037000       0.07658000       0.04000000
Se      -0.00137634       4.68839693       8.30157899     -12.29442765       9.35424328      13.86338320       7.74068876      -1.40876930      -0.35364322       0.32785899       0.01581234       0.07018720       7.74068876      -1.40876930      -0.35364322      -5.46811910      -0.55991859      14.55263743       0.00624391       0.28478758       0.14971359       0.32785899       0.01581234       0.07018720       0.00624391       0.28478758       0.14971359       0.03053371       0.01864386       0.86648467       0.82523000       0.14836000      -0.00631000       0.05875000       0.82740000      -0.00372000       0.06328000      -0.09744000       0.06506000
Mo      -3.23744180       6.63866781      10.00607523     -40.39203488     -19.86432981      10.78238006      -9.29343440     -10.33751987       2.96686202       0.17067051      -0.03203421      -0.48679605      -9.29343440     -10.33751987       2.96686202      -7.67534931      15.37418820       8.53232576       0.08401874       0.19677607      -0.01533284       0.17067051      -0.03203421      -0.48679605       0.08401874       0.19677607      -0.01533284      -0.03648070      -0.00151354       0.04511040      -1.80665000       0.13625000       0.01173000       0.14192000      -1.65707000      -0.01550000      -0.06837000      -0.05932000      -0.08429000
Se      -1.66654864       7.54449480      11.74104753       6.61564976      12.56162240     -18.77245420       5.40160204       4.43303668       1.09914056      -0.19362752       0.03701809       0.04368019       5.40160204       4.43303668       1.09914056       3.93827233       0.83658838     -27.50474265      -0.00437803      -0.31387062       0.17757073      -0.19362752       0.03701809       0.04368019      -0.00437803      -0.31387062       0.17757073      -0.01303729       0.02517624      -0.84117159       0.84134000       0.07194000       0.00252000      -0.00530000       0.93849000      -0.00859000       0.09500000      -0.06175000       0.04402000
S       -1.64059484       7.56042100       8.52916630      -1.73532220      17.87804086     -10.70369959      11.30836427       0.42653203      -1.76116708      -0.05823264      -0.09468380       0.05611048      11.30836427       0.42653203      -1.76116708      -1.41977669      -2.09253597      -2.71512903      -0.03572538      -0.12687921       0.25104639      -0.05823264      -0.09468380       0.05611048      -0.03572538      -0.12687921       0.25104639       0.00985866      -0.00791926       0.43890333       0.87156000      -0.04093000       0.00509000      -0.08969000       0.64911000      -0.00003000       0.10241000       0.01336000       0.02420000
Mo       3.25897165       0.98781741      10.00184791       5.07807269     -33.20527806      20.83376725     -28.35787278       2.10071346       2.60389033       0.43759384       0.04711194       0.17544427     -28.35787278       2.10071346       2.60389033      -0.21355955     -29.70279817      23.99002946       0.07440789       0.59869654      -0.63239691       0.43759384       0.04711194       0.17544427       0.07440789       0.59869654      -0.63239691       0.01573505      -0.03441632       0.15486023      -1.82079000       0.06161000       0.00705000       0.14674000      -1.52367000      -0.00338000      -0.08727000      -0.09817000      -0.08099000
Se       4.93151720       1.87270441      11.72462979       6.18432560       7.31872949     -25.84349856       8.34395331       0.45978170       2.19461822      -0.33780380       0.00149639      -0.00209501       8.34395331       0.45978170       2.19461822      -0.83797140       1.33828553     -23.66625717       0.10402743      -0.28240901      -0.09094539      -0.33780380       0.00149639      -0.00209501       0.10402743      -0.28240901      -0.09094539      -0.03212651      -0.01556305      -0.85482358       0.83492000      -0.06157000       0.00806000       0.09259000       0.91340000      -0.00119000       0.11091000       0.11947000       0.03581000
S        4.87449748       1.88312525       8.44570123       4.92147963       8.23949025       1.12171672      11.21190125       1.23458878      -1.59181559      -0.11615914      -0.03803064      -0.10969618      11.21190125       1.23458878      -1.59181559       2.30920972      -8.73284623      -0.36557261      -0.14506084      -0.05388755      -0.02955147      -0.11615914      -0.03803064      -0.10969618      -0.14506084      -0.05388755      -0.02955147      -0.00452443      -0.00207985       0.53446261       0.55243000      -0.22115000       0.01416000      -0.09374000       0.65114000      -0.00522000      -0.01808000      -0.08273000       0.02130000
Mo       1.65042583       3.75130740       9.96242566      -7.63838593      -7.83652733      14.78007419     -12.31642335      -7.33715768      -0.90000884       0.31925555      -0.12209176      -0.19653895     -12.31642335      -7.33715768      -0.90000884      -4.38882081      13.18052521      16.55747659      -0.01519660       0.19731175      -0.01795323       0.31925555      -0.12209176      -0.19653895      -0.01519660       0.19731175      -0.01795323      -0.00770442       0.01460074       0.04098201      -1.76561000       0.03418000      -0.00815000      -0.03381000      -1.63556000       0.01545000       0.03464000       0.13285000      -0.07560000
Se       3.27784715       4.75691890      11.62376388       1.70025920      -0.33548390     -19.57709210       2.63775931       0.19236752       1.99515028      -0.36636414       0.05338677       0.05566328       2.63775931       0.19236752       1.99515028       0.83783373     -11.81950171     -16.59828619       0.02077025      -0.34020002       0.01563854      -0.36636414       0.05338677       0.05566328       0.02077025      -0.34020002       0.01563854       0.00546218      -0.00864116      -0.71396738       1.12759000      -0.03531000      -0.00479000       0.00911000       1.06426000      -0.00069000      -0.04569000      -0.14717000       0.04519000
Se       3.27597926       4.65290707       8.24259308       8.73286788       5.95796027      19.61958136       4.89560923       1.76159014      -1.31401569       0.32224729      -0.05269791       0.09313399       4.89560923       1.76159014      -1.31401569       3.42310689      -5.10130267      19.54124377      -0.00973078       0.30224780      -0.06912560       0.32224729      -0.05269791       0.09313399      -0.00973078       0.30224780      -0.06912560      -0.02400898       0.01968969       0.93430381       0.82596000      -0.04559000       0.00029000       0.03081000       0.75681000      -0.00304000      -0.02380000      -0.09734000       0.05936000
Mo      -0.01474648       6.63247429      10.01197382      18.95773732     -14.53618553      -0.85161864     -15.57231849       3.00066979      -3.38072242      -0.23734011      -0.00386260       0.18780582     -15.57231849       3.00066979      -3.38072242      -0.37530275       8.81876911      -2.78770837      -0.02420140      -0.11517382      -0.07276379      -0.23734011      -0.00386260       0.18780582      -0.02420140      -0.11517382      -0.07276379       0.01351553      -0.00702476      -0.00730532      -1.61482000      -0.10533000       0.00272000      -0.19465000      -1.68978000      -0.00823000       0.03482000      -0.07434000      -0.07797000
Se       1.66998949       7.60416888      11.64617853      -4.73036429       3.88977702     -20.15800172       4.26286792       1.62862651       1.39313686      -0.25219767       0.00586935      -0.01812072       4.26286792       1.62862651       1.39313686       1.56578169      -9.57289913     -19.35581594       0.08106939      -0.35292517      -0.08431611      -0.25219767       0.00586935      -0.01812072       0.08106939      -0.35292517      -0.08431611      -0.00385474       0.00055270      -0.74753901       1.00325000      -0.08268000      -0.00694000      -0.11360000       1.03682000       0.00398000      -0.14663000      -0.03555000       0.04657000
Se       1.61788526       7.61891536       8.21408322     -11.82738389       3.79839842      23.91545261       4.02700698      -1.57476678       0.57503952       0.38084482      -0.00235222      -0.18236512       4.02700698      -1.57476678       0.57503952      -2.94285967      -6.90417411      19.50119222      -0.06167041       0.33205802      -0.17384281       0.38084482      -0.00235222      -0.18236512      -0.06167041       0.33205802      -0.17384281       0.01624859      -0.03328193       1.00909427       0.64547000       0.02195000      -0.00447000      -0.00240000       0.71974000       0.00406000       0.05879000       0.09174000       0.05428000
Mo       6.53465598       0.96009403       9.94374679      14.79091101     -23.38121352      10.39664146     -18.50542508       3.67339164      -1.10197047       0.19741983       0.02950382       0.06226105     -18.50542508       3.67339164      -1.10197047      10.77000502       3.11499604      11.66867944       0.10887041       0.15958756       0.13762154       0.19741983       0.02950382       0.06226105       0.10887041       0.15958756       0.13762154      -0.00068152      -0.01814798      -0.01714723      -1.05402000       0.14971000      -0.01211000       0.32024000      -1.88868000       0.00928000      -0.09273000       0.05337000      -0.07388000
S        8.17593899       1.93798215      11.48377065      -6.59242608       9.39894189       2.31619881      10.43219352      -2.58989184      -2.66560210       0.17770469      -0.06196577      -0.11203046      10.43219352      -2.58989184      -2.66560210      -5.46051967     -13.90633743      -2.88485856      -0.15870648       0.06393586      -0.07933356       0.17770469      -0.06196577      -0.11203046      -0.15870648       0.06393586      -0.07933356      -0.01907622       0.00210398      -0.42804722       0.74886000       0.07474000      -0.00456000       0.06874000       0.84060000       0.00311000       0.02909000      -0.05723000       0.01382000
S        8.21447646       1.89629877       8.41394715     -13.44263656      13.78294187      -1.02455569      13.47395631      -5.26083225       2.37609946      -0.13660743      -0.00941863      -0.10332490      13.47395631      -5.26083225       2.37609946      -9.57827624       1.35306807       1.36428948       0.07908042      -0.01448760      -0.01373581      -0.13660743      -0.00941863      -0.10332490       0.07908042      -0.01448760      -0.01373581       0.00978346      -0.02275000       0.56193575       0.45962000       0.05913000      -0.01147000       0.08277000       0.60928000       0.01015000       0.11239000      -0.10817000       0.01751000
Mo       4.94832818       3.74580205       9.96340876     -20.79273885       6.43626333      16.21752297      -4.02545854     -10.55301783      -0.29239397       0.26570912       0.10655784      -0.23864210      -4.02545854     -10.55301783      -0.29239397      -5.66318659      56.39564001      17.71739907       0.02315131       0.22881366       0.31961048       0.26570912       0.10655784      -0.23864210       0.02315131       0.22881366       0.31961048      -0.02563376       0.03196693       0.09847132      -1.63020000       0.13482000       0.00880000       0.20619000      -1.58408000      -0.00503000      -0.00725000       0.13301000      -0.07850000
Se       6.57820725       4.76881439      11.65886050      -1.49754395       1.18534477     -20.13704032       1.93520323       0.28344939      -0.49114312      -0.21805387      -0.03397312       0.01613582       1.93520323       0.28344939      -0.49114312      -1.61814110     -22.94248696     -17.39759811      -0.02036191      -0.15164758      -0.03679982      -0.21805387      -0.03397312       0.01613582      -0.02036191      -0.15164758      -0.03679982       0.00527844       0.01628632      -0.75480996       0.96333000       0.05499000       0.01019000       0.05810000       0.92893000      -0.00416000       0.05367000      -0.24894000       0.04669000
S        6.54370049       4.76291580       8.45140320       9.81235626       9.53503061      -4.09162991       7.26443857       2.97431231       1.94678779      -0.15888430       0.11347912      -0.12174113       7.26443857       2.97431231       1.94678779       4.73457773     -17.70189825      -2.52155516       0.05269315      -0.12709374       0.13564497      -0.15888430       0.11347912      -0.12174113       0.05269315      -0.12709374       0.13564497      -0.00305218       0.02055779       0.51719857       0.61465000      -0.04834000       0.00725000      -0.02481000       0.52156000      -0.00208000      -0.17026000       0.21854000       0.01733000
Mo       3.27450461       6.61871091       9.91533524       3.38739809      -5.57688893       9.70413679       1.28889152       3.63664195       0.26045863       0.02827239      -0.00941042       0.00044069       1.28889152       3.63664195       0.26045863       5.54383413      12.89606531       8.46054351      -0.00936695       0.01410938       0.06685427       0.02827239      -0.00941042       0.00044069      -0.00936695       0.01410938       0.06685427       0.00315431       0.00919134       0.02847292      -2.04059000       0.00515000      -0.01384000       0.03799000      -1.83622000      -0.00960000      -0.00861000      -0.11988000      -0.08352000
Se       4.88580312       7.56543480      11.64234444       2.20067263       7.76133421     -19.68392560       7.07845859      -3.57737950      -0.29963215      -0.31578100       0.02295494       0.03624212       7.07845859      -3.57737950      -0.29963215      -1.64952664       0.22727116     -17.24730240      -0.05154733      -0.25898475       0.00723123      -0.31578100       0.02295494       0.03624212      -0.05154733      -0.25898475       0.00723123       0.01683566      -0.01572988      -0.74016890       1.04571000       0.09866000      -0.00192000       0.04243000       0.97924000       0.00147000       0.03576000       0.16608000       0.05797000
Se       4.95648790       7.59404297       8.29469730       9.97082219       7.46199304      15.64353744       6.42283073       0.04086951      -2.04421702       0.33803114       0.00267499       0.10928971       6.42283073       0.04086951      -2.04421702       3.58635125      -2.02569477      13.01894331       0.05369720       0.27877296       0.01459512       0.33803114       0.00267499       0.10928971       0.05369720       0.27877296       0.01459512      -0.02824930      -0.00074020       0.88184455       0.80833000       0.07936000       0.00492000      -0.01450000       0.85806000       0.00074000      -0.01215000       0.01127000       0.05962000
27
Lattice="9.895465626592884 0.0 0.0 -4.947732813296442 8.569473232629436 0.0 0.0 0.0 19.642499268786874" Properties=species:S:1:pos:R:3:raman_tensor:R:27:born_effective_charge:R:9 susceptibility_tensor="_JSON [[-612.0030831154293, -0.06124662979084314, 0.0027281284626583017], [-0.06124225566591516, -611.4867383453625, -0.08058384080200977], [0.0027327676860667673, -0.08058887767313896, -35.671801977281476]]" pbc="T T T"
Mo       0.00494773       0.98083855       9.88784612      31.88082398     -22.95324619       2.90553791     -22.88052445      10.99915040       2.57209544       0.16649126       0.06599440       0.19816279     -22.88052445      10.99915040       2.57209544       9.89861632      -2.82173574       2.10656138       0.02224598       0.09534275      -0.38338930       0.16649126       0.06599440       0.19816279       0.02224598       0.09534275      -0.38338930       0.01986739      -0.00924771      -0.00317435      -1.74511000      -0.06005000      -0.00472000      -0.17046000      -1.61466000       0.01779000      -0.09265000       0.14376000      -0.10951000
Se       1.74407582       2.00709729      11.57957492     -10.16326167      -0.46674470     -17.40877882       2.50601469      -4.19102593      -1.24388416      -0.27026745      -0.01385887      -0.07910129       2.50601469      -4.19102593      -1.24388416      -4.21854550     -14.43306240     -13.44856604       0.03800398      -0.32377489      -0.05063066      -0.27026745      -0.01385887      -0.07910129       0.03800398      -0.32377489      -0.05063066      -0.02236761      -0.00420726      -1.03044959       0.52719000      -0.00831000       0.00339000       0.11126000       0.54323000       0.00638000      -0.07529000      -0.16663000       0.04777000
Se       1.67084937       1.90458027       8.17998771     -17.32100502       6.48802653       7.87920325       5.19010491      -5.51633837       0.67100164       0.24301077      -0.04308755      -0.13438777       5.19010491      -5.51633837       0.67100164      -3.65936988      -8.23549733      10.79818267      -0.13308771       0.30721909      -0.04223165       0.24301077      -0.04308755      -0.13438777      -0.13308771       0.30721909      -0.04223165       0.04267087       0.01468133       0.85721011       0.76363000       0.00513000      -0.00617000       0.09617000       0.73486000      -0.00143000       0.16761000      -0.04420000       0.05906000
W       -1.67282846       3.78996333       9.84559248      -4.75656177     -17.38416568       0.71332339     -16.42028939      -2.38653221       2.18533838      -0.02537443       0.03230873      -0.14790664     -16.42028939      -2.38653221       2.18533838       0.98234718      38.81765234      -2.00780227      -0.02475237       0.02661327       0.26965477      -0.02537443       0.03230873      -0.14790664      -0.02475237       0.02661327       0.26965477       0.00717510      -0.00284867       0.07401752      -0.63070000      -0.28046000       0.00987000       0.17276000      -0.76882000      -0.00374000       0.11397000      -0.03210000      -0.02695000
S       -0.00870801       4.77020816      11.36365586      -1.29825679      15.04392328       1.98232312      14.02905022      -1.74946057      -1.73380922       0.19350158      -0.07034310      -0.09195627      14.02905022      -1.74946057      -1.73380922      -0.70758732      -4.27596076       0.10646681      -0.05178539       0.06765225      -0.05127115       0.19350158      -0.07034310      -0.09195627      -0.05178539       0.06765225      -0.05127115      -0.00730037      -0.02253009      -0.57749805       0.18168000       0.06120000       0.01060000       0.10014000       0.40831000      -0.00839000       0.05493000       0.02737000       0.00302000
S       -0.10914699       4.74715173       8.28161414      11.99764071      12.70273987      -4.97915383      13.13850576       1.54355239      -1.75642464      -0.21552992      -0.03909112       0.10339259      13.13850576       1.54355239      -1.75642464       4.40197551     -12.90069586      -2.43028813      -0.02359511      -0.10461723      -0.07130403      -0.21552992      -0.03909112       0.10339259      -0.02359511      -0.10461723      -0.07130403       0.02036478      -0.01261126       0.58681796       0.28512000       0.03734000      -0.00462000       0.10148000       0.25622000       0.00556000      -0.22172000      -0.04898000       0.00952000
W       -3.27579494       6.62352992       9.83638970      -7.06214767      -7.42098064       6.25923629      -4.22538108      -5.38951752      -0.63660196       0.23884633      -0.11168865      -0.21148872      -4.22538108      -5.38951752      -0.63660196     -10.04647162      51.25453011       5.91538550       0.05789547       0.26473563       0.48854568       0.23884633      -0.11168865      -0.21148872       0.05789547       0.26473563       0.48854568      -0.01382848       0.04045879       0.03670691      -0.67801000       0.22870000       0.02312000       0.06697000      -0.54703000       0.00045000       0.09278000      -0.08503000      -0.00545000
S       -1.66016227       7.62178449      11.39156107      14.55227847       5.57932915      -5.29876468       8.82298493       4.07912553      -0.36010874      -0.03083773       0.04182781       0.00264838       8.82298493       4.07912553      -0.36010874       3.53495645     -19.66555733       1.72157062      -0.03302664       0.18031381      -0.10374599      -0.03083773       0.04182781       0.00264838      -0.03302664       0.18031381      -0.10374599      -0.01758122      -0.00034644      -0.62593243       0.39171000      -0.02608000      -0.00708000      -0.13267000       0.18477000       0.00328000       0.06994000       0.02380000      -0.00020000
S       -1.66708909       7.63880469       8.28299950       1.42232693       5.10932878       0.42154206       9.00662449       0.37688396      -0.48363634      -0.17873284      -0.08225626      -0.06206607       9.00662449       0.37688396      -0.48363634      -2.09041253     -25.11594743      -5.45552507       0.02704949      -0.23858587      -0.09582128      -0.17873284      -0.08225626      -0.06206607       0.02704949      -0.23858587      -0.09582128      -0.00184627       0.02069100       0.57484456       0.31222000       0.04867000       0.00157000      -0.09090000       0.30820000      -0.00949000      -0.13089000       0.08237000       0.00903000
W        3.30924161       0.93383509       9.81758831      -1.84803878       1.78416927      -1.36750522       1.44499138       5.16751241      -0.68526423      -0.05593608       0.06552011       0.25828620       1.44499138       5.16751241      -0.68526423      -8.20923047      45.30031329      -2.48629841       0.00236247      -0.23864192       0.56326258      -0.05593608       0.06552011       0.25828620       0.00236247      -0.23864192       0.56326258      -0.00945860       0.04351943       0.07467068      -1.12563000       0.02576000      -0.01729000       0.42029000      -0.69272000      -0.00530000       0.05432000       0.12364000      -0.01929000
S        4.94031121       1.94465690      11.31239735       9.04867452       4.04754222      -1.34080851       9.41524600       0.78416457       1.79478375      -0.20782661       0.02439793      -0.00227187       9.41524600       0.78416457       1.79478375       0.76788588     -11.99101116       2.57010935      -0.00138197       0.14220109       0.20163881      -0.20782661       0.02439793      -0.00227187      -0.00138197       0.14220109       0.20163881      -0.01539116       0.00506652      -0.54079044       0.61792000       0.00690000       0.00189000      -0.02710000       0.36364000       0.00524000       0.08049000      -0.04014000       0.01065000
Se       4.96316974       1.87311269       8.05965884       4.55122097       7.00213428      14.73547266       7.98379963       0.09438628       1.42488185       0.46270441       0.03499973      -0.09658460       7.98379963       0.09438628       1.42488185      -1.08586015      -2.80249403      10.75643504       0.02674973       0.13025653       0.11010048       0.46270441       0.03499973      -0.09658460       0.02674973       0.13025653       0.11010048      -0.04237600       0.01564079       1.02473463       0.63468000      -0.01756000       0.00297000      -0.05051000       0.54381000       0.01813000      -0.07810000      -0.00779000       0.05113000
W        1.63136646       3.84715913       9.81729145      33.68656581     -19.90800084      -8.14843198     -18.73095862       7.74193701       1.71192491      -0.25124945       0.11556443       0.45819440     -18.73095862       7.74193701       1.71192491      15.32257976       2.08744415      -7.92899786       0.13178946      -0.12120910      -0.00834735      -0.25124945       0.11556443       0.45819440       0.13178946      -0.12120910      -0.00834735       0.02483627      -0.03526227      -0.03859061      -0.44068000      -0.12147000      -0.03333000      -0.23077000      -1.12506000      -0.01522000      -0.02041000       0.06609000       0.00305000
S        3.30716357       4.74032385      11.31348585      -0.74634195      14.57137626       5.51767802      14.04575393       4.37182064      -1.47450372       0.10671489      -0.16426059       0.16290088      14.04575393       4.37182064      -1.47450372       2.50669389       4.84367463       0.00097536      -0.14701288      -0.03691862       0.03893792       0.10671489      -0.16426059       0.16290088      -0.14701288      -0.03691862       0.03893792       0.00181402      -0.01262765      -0.53061768       0.55696000       0.15366000       0.00019000       0.08508000       0.65831000      -0.01830000       0.06071000       0.12041000       0.02340000
Se       3.29489319       4.78940536       8.11497450      -1.26859200      10.46646779       5.98604267      10.77876304       2.00180900       2.55700073       0.24695821       0.16048990       0.02294885      10.77876304       2.00180900       2.55700073       1.52410817       6.07954990      10.06276381       0.17924616       0.36980579       0.09265864       0.24695821       0.16048990       0.02294885       0.17924616       0.36980579       0.09265864       0.00253255      -0.02575446       0.94393370       0.67717000       0.02462000       0.01392000       0.01465000       0.85297000      -0.00394000      -0.00264000      -0.04583000       0.05585000
W       -0.01147874       6.66736683       9.78236045     -25.14217859     -24.07279890       5.72696704     -24.76788089      -4.64259882      -1.23802570       0.21481811      -0.02652595      -0.19728575     -24.76788089      -4.64259882      -1.23802570       5.19073006      23.36198929       7.67919778       0.01879196       0.21573067      -0.08985706       0.21481811      -0.02652595      -0.19728575       0.01879196       0.21573067      -0.08985706      -0.01715816      -0.00271301      -0.02528149      -0.42144000       0.13719000      -0.02003000      -0.22395000      -0.48505000      -0.01638000       0.15480000      -0.00463000      -0.05386000
S        1.57397276       7.56904166      11.32605309       6.83298346      19.02367559      10.92141836      10.83990851       0.86458329       2.10804135       0.18763923       0.01153060       0.20091646      10.83990851       0.86458329       2.10804135       0.58110172      -9.58594776       2.15829932      -0.03376173       0.04897889       0.06950281       0.18763923       0.01153060       0.20091646      -0.03376173       0.04897889       0.06950281       0.00574247       0.01146286      -0.57006502       0.49138000       0.15724000      -0.00549000       0.15521000       0.44094000       0.01001000       0.08417000       0.03718000       0.01722000
S        1.64225148       7.56923957       8.22837653       3.23017778      17.85773994      -3.51025820      11.04898872       0.78703257      -0.53453907      -0.18927325       0.05782602       0.02739780      11.04898872       0.78703257      -0.53453907       1.12835740      -5.33352208       1.51153970       0.05740694      -0.10406912       0.08666574      -0.18927325       0.05782602       0.02739780       0.05740694      -0.10406912       0.08666574       0.01246497       0.00377846       0.62421171       0.32812000      -0.02742000      -0.00489000      -0.06556000       0.36260000      -0.00079000       0.00502000      -0.03955000       0.00210000
W        6.58097941       0.93195495       9.77820436     -13.75098964     -26.38407036      11.41914931     -18.27263972      -3.81298721      -1.53603213       0.21712545      -0.06206768      -0.10113251     -18.27263972      -3.81298721      -1.53603213       9.65911696      10.12600627       7.29420095       0.00625175       0.15385586       0.05457885       0.21712545      -0.06206768      -0.10113251       0.00625175       0.15385586       0.05457885       0.00340122       0.00910122       0.04656611      -0.90863000       0.19179000       0.01469000      -0.21351000      -0.45921000       0.01547000      -0.11566000      -0.02630000       0.00139000
Se       8.27181763       1.90636145      11.55869549     -12.76475974      10.86207242     -10.79888863       7.31864918      -2.79626925      -1.99563047      -0.31036009      -0.00637735      -0.13060033       7.31864918      -2.79626925      -1.99563047     -11.18095731      -6.70079758     -10.02660606      -0.10250161      -0.22211472      -0.01323425      -0.31036009      -0.00637735      -0.13060033      -0.10250161      -0.22211472      -0.01323425       0.02726043      -0.00432233      -1.01259038       0.64034000      -0.07275000      -0.00038000      -0.02692000       0.60892000       0.00148000      -0.11628000       0.06307000       0.04809000
S        8.26370334       1.87855519       8.29992075       6.59695650      15.84564547      -3.61620655      10.41240353       2.71135312       2.00872562      -0.06905804       0.04742586       0.11254677      10.41240353       2.71135312       2.00872562      -3.42858554      -8.93827358      -0.10742227       0.09967318      -0.07574251       0.01854141      -0.06905804       0.04742586       0.11254677       0.09967318      -0.07574251       0.01854141      -0.00271367       0.00563248       0.55809159       0.46157000      -0.03709000       0.01055000      -0.00657000       0.40878000      -0.00208000       0.04888000      -0.06952000       0.00965000
Mo       4.96504988       3.82717029       9.75089287     -16.67277843     -18.33711873       4.07074164     -28.47951756      -7.21867992      -0.44708213       0.04398531      -0.02316548      -0.17834762     -28.47951756      -7.21867992      -0.44708213     -12.68942445      17.85823006       2.40708630      -0.11710226       0.03857859      -0.20679798       0.04398531      -0.02316548      -0.17834762      -0.11710226       0.03857859      -0.20679798      -0.01648422      -0.01866110      -0.12134501      -1.50637000       0.28547000       0.00830000      -0.00517000      -1.64064000      -0.00866000      -0.08322000      -0.14232000      -0.12394000
S        6.62135291       4.76031269      11.37800429      -9.64962634       8.79379574      -2.69108642       8.87438056      -1.85324882       0.14038836       0.18506355       0.05377044      -0.27907578       8.87438056      -1.85324882       0.14038836      -1.76784018     -22.04669639       0.27980119       0.13796724       0.04241610      -0.19084357       0.18506355       0.05377044      -0.27907578       0.13796724       0.04241610      -0.19084357      -0.00341468      -0.00220974      -0.60879202       0.36296000      -0.17146000      -0.00499000      -0.14929000       0.43815000       0.00642000      -0.14139000      -0.01517000       0.00872000
S        6.61808741       4.78722836       8.25568802       2.43638768       8.64860198       0.37970456       8.98153232       2.43682656      -2.16533787      -0.15133432      -0.12446038       0.04023580       8.98153232       2.43682656      -2.16533787       2.55995358     -19.20844970      -3.55045747      -0.19000324      -0.12123603      -0.25057457      -0.15133432      -0.12446038       0.04023580      -0.19000324      -0.12123603      -0.25057457      -0.02170524      -0.02192646       0.61739065       0.40673000      -0.04676000      -0.00998000      -0.03179000       0.34684000      -0.00875000       0.06886000       0.06691000       0.01128000
Mo       3.27718031       6.69735009       9.82748378      12.78912976     -35.77274538      -8.97726503     -36.94425025       1.61146581      -2.46100467      -0.30278705       0.00446053       0.15122589     -36.94425025       1.61146581      -2.46100467      -4.11434320     -10.46868569      -5.72410791      -0.05101491      -0.16631488      -0.50359682      -0.30278705       0.00446053       0.15122589      -0.05101491      -0.16631488      -0.50359682       0.00579929      -0.02726744       0.13456969      -1.19202000      -0.44351000       0.00731000       0.04395000      -1.37004000       0.00387000      -0.12387000      -0.03036000      -0.09220000
Se       4.92695234       7.57982772      11.57541883      -2.60548451       4.42403268     -11.96140485       7.70374982      -0.65514467       2.31784976      -0.31347967       0.00980421       0.10441553       7.70374982      -0.65514467       2.31784976       5.37909625      -6.81218437     -11.97666260       0.17403591      -0.35672145       0.03635825      -0.31347967       0.00980421       0.10441553       0.17403591      -0.35672145       0.03635825       0.02571395       0.03509771      -1.03941668       0.59624000      -0.05350000       0.00610000      -0.01208000       0.71565000      -0.00012000      -0.03392000      -0.03905000       0.05417000
S        4.99819969       7.66364231       8.30417580     -13.92203881       4.71465288       0.91611710      10.22565977      -5.00315542      -0.94773681       0.07011392       0.04168369      -0.11251395      10.22565977      -5.00315542      -0.94773681      -0.58420063     -11.12091676      -0.35576578      -0.07554556       0.02402787       0.03969900       0.07011392       0.04168369      -0.11251395      -0.07554556       0.02402787       0.03969900      -0.00620936      -0.00256658       0.56344470       0.41297000       0.00276000       0.00449000       0.06929000       0.52703000       0.00849000       0.17954000       0.08301000       0.00632000
27
Lattice="9.76767991431967 0.0 0.0 -4.883839957159835 8.458810805800836 0.0 -0.0 0.0 20.423241932851" Properties=species:S:1:pos:R:3:raman_tensor:R:27:born_effective_charge:R:9 susceptibility_tensor="_JSON [[-690.4254629069554, -0.23303660843409288, -0.1281085263766489], [-0.23297886747353505, -699.3800229186774, -0.13201772368771844], [-0.14301428820400414, -0.1493809676526762, -37.630253174420794]]" pbc="T T T"
Mo       0.01924233       1.05178377      10.22607713     -18.70218151     -21.46361715     -19.44703966     -33.21806896      -4.87136725      -0.21340029      -0.65372782       0.09412824      -0.29245054     -33.21806896      -4.87136725      -0.21340029       0.04116682     -36.05897767     -14.80265663      -0.01828839      -0.57016285      -0.78939826      -0.65372782       0.09412824      -0.29245054      -0.01828839      -0.57016285      -0.78939826      -0.01339890      -0.06351931      -0.13915306      -1.81487000      -0.04691000      -0.02866000       0.03047000      -1.80019000       0.00112000      -0.17291000       0.02741000      -0.10366000
Se       1.62270466       1.81825362      11.93815607       8.87691075      16.11007742     -31.72646975      11.63991498       1.28858423       0.09514824      -0.28846398      -0.00598194      -0.02335854      11.63991498       1.28858423       0.09514824       6.33734962      19.96218909     -36.64320151       0.14565650      -0.29568693       0.14336107      -0.28846398      -0.00598194      -0.02335854       0.14565650      -0.29568693       0.14336107      -0.02413570      -0.04345979      -0.71794578       0.95230000       0.00749000      -0.01313000       0.03138000       0.92739000      -0.01778000      -0.02050000       0.30504000       0.05826000
Se       1.54290272       1.89121819       8.43292645      19.22743058      11.82616541      45.53913049       5.00525491      14.57206490      -0.49299962       0.37866632       0.11532361       0.13264642       5.00525491      14.57206490      -0.49299962      21.98170855       9.31370517      54.02895810      -0.09354193       0.41253839      -0.02717319       0.37866632       0.11532361       0.13264642      -0.09354193       0.41253839      -0.02717319      -0.02156144       0.00000906       0.79096600       0.85723000       0.10334000       0.00152000       0.11946000       0.94182000      -0.00418000      -0.14993000       0.01419000       0.03165000
Mo      -1.62749083       3.70292746      10.19716480     -27.59906469      12.22793236       6.08801407       3.29996499       3.66570889       1.74500726       0.17146215       0.03941720      -0.11576999       3.29996499       3.66570889       1.74500726     -11.44406179      74.10552259       1.55266997      -0.09578283       0.14327302       0.39223405       0.17146215       0.03941720      -0.11576999      -0.09578283       0.14327302       0.39223405      -0.01307763       0.03302562      -0.09227133      -1.88336000      -0.00529000      -0.02856000      -0.28441000      -2.11636000      -0.00554000       0.01112000       0.04775000      -0.11290000
Se      -0.00068374       4.70977990      11.87896393      -4.20184614       0.95519189     -14.89490381      -1.21817809       0.58426609      -3.29275574      -0.13356218      -0.05938603      -0.08498079      -1.21817809       0.58426609      -3.29275574      -5.93981593     -19.34260647     -19.14780409      -0.05745639      -0.26137196      -0.22366245      -0.13356218      -0.05938603      -0.08498079      -0.05745639      -0.26137196      -0.22366245      -0.03716793      -0.01560684      -0.64916370       1.10280000       0.06467000      -0.01649000       0.05462000       1.04750000       0.00245000       0.04602000      -0.18668000       0.06686000
Se       0.01289334       4.62753604       8.54759902      -7.90674464      10.68927639      19.08257794       4.09294537      -6.97500006      -1.39058415       0.11317508      -0.10184416      -0.01147073       4.09294537      -6.97500006      -1.39058415      -8.54617548       3.12642194      34.01300523      -0.00335231       0.42398535       0.17571556       0.11317508      -0.10184416      -0.01147073      -0.00335231       0.42398535       0.17571556       0.04498296      -0.00280349       0.66058891       1.01708000      -0.09050000      -0.02209000      -0.08781000       1.13261000       0.00537000       0.16425000       0.09818000       0.06027000
Mo      -3.31954602       6.63850598      10.22480733      48.47080047     -29.95826105       5.35547282     -16.13380978       7.55503195       0.70774796       0.24428869       0.02375016       0.36172052     -16.13380978       7.55503195       0.70774796       8.25651699     -39.34184217       6.36223630       0.08590179       0.25094284      -0.26271700       0.24428869       0.02375016       0.36172052       0.08590179       0.25094284      -0.26271700       0.02613834      -0.01641005      -0.01991798      -2.21403000       0.30446000       0.00980000      -0.25202000      -1.88437000      -0.02169000      -0.01169000      -0.08042000      -0.10921000
Se      -1.62543961       7.56516577      11.96824052     -13.73617913      -7.24400998     -33.25377853       2.06864052      -1.00967006      -1.75169530      -0.40275358       0.01037365      -0.26711682       2.06864052      -1.00967006      -1.75169530      -5.86720235     -19.43542038     -30.16072636      -0.05966281      -0.17734229      -0.05804879      -0.40275358       0.01037365      -0.26711682      -0.05966281      -0.17734229      -0.05804879      -0.02123536       0.00982448      -0.76921991       0.88638000       0.05562000      -0.00240000       0.03413000       0.90005000       0.00303000      -0.05310000      -0.00323000       0.04979000
Se      -1.67173842       7.45674452       8.51233769       5.36271516       2.62968254      36.74557804       5.77503745      -2.48042198       4.42942284       0.36433997      -0.07525867      -0.12940129       5.77503745      -2.48042198       4.42942284      -0.21568017      -2.09729135      26.66832597       0.01075442       0.12865436       0.00616395       0.36433997      -0.07525867      -0.12940129       0.01075442       0.12865436       0.00616395      -0.00824776       0.01288081       0.70349022       1.15440000      -0.02601000       0.00186000      -0.03885000       1.07171000      -0.01304000       0.03946000      -0.21295000       0.06500000
Mo       3.21952498       0.85867674      10.20087652      49.24823461       8.04552163       2.14050730       5.36690731       8.47828946       3.67642658       0.18715301       0.03058225       0.37132988       5.36690731       8.47828946       3.67642658      -2.35842185      59.95512084      -1.01368969      -0.08221842       0.05513251       0.97860637       0.18715301       0.03058225       0.37132988      -0.08221842       0.05513251       0.97860637       0.00719379       0.03481486       0.03048276      -1.78246000       0.19818000      -0.00282000      -0.03726000      -1.96248000      -0.03035000       0.04995000      -0.19184000      -0.09925000
Se       5.01062444       1.83466332      11.88238262     -27.02866362       1.82333697     -27.46927827       4.17694940      -7.19361309      -1.01664992      -0.38277586       0.05302842      -0.27165533       4.17694940      -7.19361309      -1.01664992     -15.85212521     -14.61108812     -20.40963722      -0.03852667      -0.13415810      -0.44767789      -0.38277586       0.05302842      -0.27165533      -0.03852667      -0.13415810      -0.44767789       0.01175283      -0.04316964      -0.65165135       1.10961000      -0.01174000       0.01272000      -0.02540000       0.94460000       0.00239000      -0.32774000       0.10806000       0.05085000
Se       4.83627136       1.84443100       8.48215556       6.14738253      -0.12623494      29.32171206       0.34915212       2.89823395       0.52355401       0.48955138      -0.07953280       0.10630692       0.34915212       2.89823395       0.52355401       4.24023545     -15.41119973      23.90192687      -0.00424725       0.35824891      -0.30516362       0.48955138      -0.07953280       0.10630692      -0.00424725       0.35824891      -0.30516362       0.00254728      -0.01175578       0.76885889       0.90802000      -0.03074000       0.01343000      -0.03091000       0.85529000       0.00348000       0.01770000       0.05777000       0.04347000
Mo       1.63862598       3.76465919      10.25137542      20.07750725       6.03134079     -14.16088104      -8.46775099       3.30991170      -2.69201153      -0.27952726      -0.05368292       0.09179113      -8.46775099       3.30991170      -2.69201153      13.40972891      40.82368590     -18.04288513       0.06352172      -0.20097871      -0.30155300      -0.27952726      -0.05368292       0.09179113       0.06352172      -0.20097871      -0.30155300       0.00011955       0.00259763       0.10827435      -1.79157000      -0.11210000      -0.00894000       0.26466000      -2.05659000      -0.00224000       0.05506000       0.03092000      -0.10408000
Se       3.27432166       4.71085435      11.87613130       5.13664339       5.41503563      -9.90091937       8.79745511       4.08832512      -1.59362770      -0.10433719      -0.11024035       0.03631781       8.79745511       4.08832512      -1.59362770       7.75513950      -7.17851154     -10.70708551       0.04905683      -0.24384112       0.16364714      -0.10433719      -0.11024035       0.03631781       0.04905683      -0.24384112       0.16364714       0.01066825       0.00473580      -0.66225981       1.03803000      -0.03792000       0.00873000       0.04182000       1.04443000      -0.00302000       0.03918000      -0.20650000       0.06616000
Se       3.29971763       4.76779992       8.55306892      -2.04378599      -3.39954842      26.16290330       0.86034656       2.70868432      -2.29743175       0.18521063       0.14828674      -0.07626259       0.86034656       2.70868432      -2.29743175       4.99696710     -22.51855057      28.51897703      -0.05624328       0.41119486      -0.08030239       0.18521063       0.14828674      -0.07626259      -0.05624328       0.41119486      -0.08030239      -0.01679878       0.01366703       0.65921742       0.93302000      -0.10295000       0.01387000      -0.01498000       1.08670000       0.00011000      -0.06192000       0.31014000       0.04399000
Mo      -0.03428456       6.57237878      10.24727300       4.54682512      -3.36351353      -3.88845796      -5.41823399       1.87819509       3.73048613       0.02181851       0.07756323       0.08728111      -5.41823399       1.87819509       3.73048613       9.10572918     -44.68770784      -8.15271388       0.10366493      -0.14168948      -0.38346292       0.02181851       0.07756323       0.08728111       0.10366493      -0.14168948      -0.38346292       0.01430918      -0.01630055      -0.02185196      -2.48547000       0.02993000      -0.02900000       0.03469000      -2.24991000       0.00547000      -0.07154000       0.15282000      -0.12080000
Se       1.64644013       7.57190547      11.94684930       3.66128548      -3.68368604     -35.18329313       2.26226033       4.67630849       3.87915433      -0.35770639      -0.10132109       0.15870329       2.26226033       4.67630849       3.87915433       2.59674969     -15.37212587     -30.05082206       0.01775188      -0.16310194      -0.02716244      -0.35770639      -0.10132109       0.15870329       0.01775188      -0.16310194      -0.02716244      -0.00769125       0.02619368      -0.74902795       0.94341000       0.05530000       0.00063000       0.05758000       0.92246000       0.01845000       0.11762000       0.07319000       0.05741000
Se       1.58617354       7.36512369       8.52786830       9.69228796      17.20529706      27.47512100      12.66557860       2.02304364      -6.20058774       0.41961071       0.05340087       0.16202621      12.66557860       2.02304364      -6.20058774       5.38445490      28.36460069      28.88618514      -0.00700033       0.13724282       0.22265959       0.41961071       0.05340087       0.16202621      -0.00700033       0.13724282       0.22265959       0.01906857      -0.01681328       0.67373086       1.20337000       0.01826000      -0.00485000      -0.03365000       1.11046000       0.00633000      -0.22631000      -0.58938000       0.05660000
Mo       6.56466232       0.84695553      10.18983904     -51.85912718      15.11794795      -3.73353739       2.64063347     -11.23884868       3.56411789       0.08508546      -0.04025290      -0.41776002       2.64063347     -11.23884868       3.56411789      -1.78685522      62.06275067      -5.50494629       0.07063191       0.22082662       0.92594219       0.08508546      -0.04025290      -0.41776002       0.07063191       0.22082662       0.92594219      -0.01293285       0.05373186      -0.07474447      -1.98984000       0.01238000       0.01057000      -0.13861000      -1.86514000       0.01284000       0.08674000      -0.01159000      -0.10596000
Se       8.22184689       1.90880001      11.91998818      -7.49511170       2.32570968     -39.73648397       4.81409992      -6.78565710       2.24167272      -0.19771726       0.01838665      -0.08729780       4.81409992      -6.78565710       2.24167272     -11.31642830      -9.59298641     -39.80871792      -0.18035068      -0.23844005      -0.26495205      -0.19771726       0.01838665      -0.08729780      -0.18035068      -0.23844005      -0.26495205      -0.00413528      -0.01443696      -0.68646561       0.92793000       0.07442000       0.00218000       0.00132000       0.95742000       0.00238000       0.07927000      -0.00364000       0.04501000
Se       8.11010463       1.83417493       8.42501463       8.70734838       6.45368786      40.96218413       6.63434081      -5.42853686      -1.73388181       0.44141160      -0.07523539       0.30623819       6.63434081      -5.42853686      -1.73388181      -3.42912919       3.76080894      40.96785025       0.07129979       0.32999460       0.08023427       0.44141160      -0.07523539       0.30623819       0.07129979       0.32999460       0.08023427       0.05071594      -0.01883774       0.81797030       0.89498000      -0.07198000      -0.00786000      -0.11914000       0.79270000       0.00413000      -0.06160000      -0.10800000       0.04893000
Mo       4.86801632       3.68739684      10.24453805      23.21168707      -4.14804846     -10.67509373      -2.78841054       3.20693757       1.54104652      -0.23110498       0.00841893       0.25476799      -2.78841054       3.20693757       1.54104652       7.37101631      70.77937509     -16.45311550       0.04817604      -0.43831595       0.48693279      -0.23110498       0.00841893       0.25476799       0.04817604      -0.43831595       0.48693279       0.01314833       0.03268570      -0.08412645      -1.84946000       0.07633000       0.05210000       0.00566000      -1.99014000      -0.00161000       0.19973000      -0.17555000      -0.09062000
Se       6.52891261       4.67197898      11.85688897      -8.01265949       5.52432985     -14.04618482       8.80335063      -3.23328819      -1.52999421      -0.21696970       0.04071898      -0.05649483       8.80335063      -3.23328819      -1.52999421      -9.63864626      -3.29423246     -10.85723519       0.03935356      -0.21976060      -0.07708421      -0.21696970       0.04071898      -0.05649483       0.03935356      -0.21976060      -0.07708421       0.01206116      -0.01391345      -0.62189605       1.08332000       0.06409000       0.00533000       0.05119000       0.98339000      -0.00185000      -0.12115000       0.09900000       0.04761000
Se       6.47196703       4.73195253       8.61870773      -0.39598350      -1.81594980      13.80365625       2.66536920      -1.98355177       0.69546492       0.15365003      -0.11049709      -0.05562131       2.66536920      -1.98355177       0.69546492      -3.67308370     -21.33095359       9.90618345       0.06120563       0.25316908      -0.08373344       0.15365003      -0.11049709      -0.05562131       0.06120563       0.25316908      -0.08373344      -0.01821402       0.00143248       0.57668125       1.22649000       0.07572000       0.00620000       0.02756000       1.27671000      -0.00091000      -0.00504000       0.19511000       0.07760000
Mo       3.30206187       6.67855346      10.23916582     -35.00523797     -38.07641950     -12.07955106     -26.51618975     -10.45068971      -2.65588630      -0.26152293       0.09812670      -0.24682759     -26.51618975     -10.45068971      -2.65588630     -10.01838869     -77.96802384     -11.19193842      -0.05241322      -0.34297833      -0.72031088      -0.26152293       0.09812670      -0.24682759      -0.05241322      -0.34297833      -0.72031088      -0.03139794      -0.04206695      -0.00387970      -2.00595000      -0.53052000       0.01964000       0.25155000      -1.79801000       0.03338000      -0.10025000       0.35033000      -0.10282000
Se       4.82240125       7.67739641      11.91676485      14.52743357      -3.34279989     -31.21392543       2.80598080       5.45669073      -0.51930039      -0.21609689      -0.01565849       0.17290025       2.80598080       5.45669073      -0.51930039       6.82947333     -10.75391262     -36.24304209       0.02048118      -0.21668737       0.35584322      -0.21609689      -0.01565849       0.17290025       0.02048118      -0.21668737       0.35584322       0.02328818       0.04998082      -0.67372044       1.02926000      -0.03560000       0.00372000       0.05088000       0.98908000       0.00104000       0.16672000      -0.28597000       0.05131000
Se       4.94606008       7.64350256       8.37783674     -22.75517100      -5.02203724      49.75157737      -0.79298822      -4.73631079       0.99153457       0.46017846       0.01944114      -0.12867502      -0.79298822      -4.73631079       0.99153457      -8.46977412     -15.38335033      55.27735910      -0.03377081       0.51447490       0.19287897       0.46017846       0.01944114      -0.12867502      -0.03377081       0.51447490       0.19287897      -0.00676643       0.04352506       0.89506201       0.54938000      -0.03792000       0.00249000       0.00606000       0.73888000       0.00024000       0.31087000       0.18584000       0.02855000
27
Lattice="9.768203799755941 0.0 0.0 -4.884101899877971 8.459264490588646 0.0 0.0 0.0 20.45950285858882" Properties=species:S:1:pos:R:3:raman_tensor:R:27:born_effective_charge:R:9 susceptibility_tensor="_JSON [[-673.2924463449592, -0.809421868581803, -0.12694144309066013], [-0.8092059412763019, -684.9617357583974, 0.25385059798610515], [-0.1317183470385895, 0.2500092444945337, -37.578402764487635]]" pbc="T T T"
Mo      -0.06769365       0.90473104      10.30711560      21.59553803      -2.22316590     -30.45234749      -4.85723340      -0.35822764       3.17676798      -0.97270154       0.15542811       0.47929353      -4.85723340      -0.35822764       3.17676798       2.53410398      32.49238431     -32.77274093       0.07933562      -0.89344739       0.54571911      -0.97270154       0.15542811       0.47929353       0.07933562      -0.89344739       0.54571911       0.03524084       0.02304632      -0.16499625      -1.98503000       0.12287000      -0.00883000      -0.41800000      -2.02728000       0.00703000       0.01531000       0.14104000      -0.06852000
Se       1.63011785       1.80379651      11.99779632      -0.70358689      10.89296657     -32.42560877       0.75235840       3.90018858      -1.44012966      -0.22322959      -0.11082365      -0.13143757       0.75235840       3.90018858      -1.44012966      -5.04138805      -1.02507049     -31.85842193      -0.00135965      -0.34389919      -0.14070139      -0.22322959      -0.11082365      -0.13143757      -0.00135965      -0.34389919      -0.14070139      -0.01541142      -0.00190444      -0.78150633       0.80869000      -0.02812000       0.00265000      -0.05827000       0.94407000       0.00582000       0.30311000       0.06633000       0.04846000
Se       1.62581984       1.90519047       8.51298961     -19.27049607      -1.51021760      42.16993527      -2.44728483      -6.02792959       2.25189479       0.31523629       0.02253523      -0.00456951      -2.44728483      -6.02792959       2.25189479     -17.00566647     -17.46174876      40.70131464      -0.00702725       0.38782227      -0.19553307       0.31523629       0.02253523      -0.00456951      -0.00702725       0.38782227      -0.19553307       0.02956740      -0.00866736       0.75795042       0.89103000      -0.01455000      -0.01791000      -0.04991000       0.88109000      -0.00461000       0.04356000       0.08161000       0.05145000
Mo      -1.56222883       3.85316567      10.21177793     -21.60667353     -57.66918661       8.52007374     -52.70512754     -19.84415011       2.04706441       0.38563520       0.07700941      -0.24180234     -52.70512754     -19.84415011       2.04706441     -18.32864790    -116.17054645       0.99618551       0.19118575       0.40327169      -1.29827896       0.38563520       0.07700941      -0.24180234       0.19118575       0.40327169      -1.29827896      -0.02743341      -0.07768189       0.01942692      -2.35589000       0.26720000       0.00502000       0.06228000      -1.97100000      -0.00490000       0.08994000      -0.00621000      -0.08351000
Se       0.05724167       4.68043485      12.02964066       1.21072980       4.09895851     -36.50684726       7.82687365       0.80343311       2.17538085      -0.52487763       0.15318340      -0.05538290       7.82687365       0.80343311       2.17538085       2.27989163       3.31188590     -35.04445830       0.22141740      -0.26090742      -0.04916872      -0.52487763       0.15318340      -0.05538290       0.22141740      -0.26090742      -0.04916872      -0.03090576      -0.01082788      -0.86978485       0.69161000      -0.05578000      -0.00272000       0.09539000       0.70261000      -0.00405000      -0.06054000       0.12577000       0.02880000
Se       0.05685095       4.76082717       8.53565184      -2.92513666      -4.84378384      35.86844165       9.35599068      -3.84242606      -0.55924077       0.26858104      -0.23380693       0.13753952       9.35599068      -3.84242606      -0.55924077       3.70967555     -16.31760803      29.06380856      -0.22323971       0.14440932      -0.12661024       0.26858104      -0.23380693       0.13753952      -0.22323971       0.14440932      -0.12661024       0.02610889      -0.00015227       0.71262503       1.02103000      -0.15944000       0.00193000      -0.02008000       0.94407000      -0.01043000       0.38520000      -0.08062000       0.05079000
W       -3.22497248       6.57370811      10.27107093     -40.70571163       2.83131421      -8.76727122     -18.55576382      -9.53050803       2.73075398      -0.01201259       0.01360274      -0.46033087     -18.55576382      -9.53050803       2.73075398     -18.94747720      45.89293598      -4.63259838      -0.01047846      -0.09784906       0.10686703      -0.01201259       0.01360274      -0.46033087      -0.01047846      -0.09784906       0.10686703      -0.02770586       0.01145528      -0.01669718      -1.13280000      -0.61256000      -0.00110000      -0.14166000      -0.67832000      -0.01449000       0.22991000      -0.13972000       0.04548000
Se      -1.59934801       7.45567923      12.00219201      -3.70125801       4.97559733     -34.93479988       5.98880823       1.08310638       1.70376832      -0.22305306      -0.09913566      -0.17572671       5.98880823       1.08310638       1.70376832      -0.28472732       4.47778261     -38.51784533       0.08007501      -0.47104102       0.17439074      -0.22305306      -0.09913566      -0.17572671       0.08007501      -0.47104102       0.17439074      -0.00934778       0.00374135      -0.80453302       0.67516000      -0.00058000      -0.01391000       0.05033000       0.57793000      -0.00758000      -0.24745000      -0.09726000       0.04411000
Se      -1.73297704       7.61333804       8.46834892      17.93746198      -8.82900814      43.82272601      -1.06950313       7.89119859       2.52608578       0.26241547       0.14156859       0.12227198      -1.06950313       7.89119859       2.52608578       9.62919518     -26.62280082      44.33356428      -0.10511097       0.40684940      -0.33593231       0.26241547       0.14156859       0.12227198      -0.10511097       0.40684940      -0.33593231      -0.00347767      -0.00324193       0.80510523       0.68739000       0.02336000       0.00504000       0.02476000       0.51167000       0.00259000      -0.05022000       0.44266000       0.03977000
Mo       3.18843940       0.97320614      10.23150971      26.64248689     -30.06290177      -2.84389853     -10.56891197       8.43697307      -2.65468238       0.14539669      -0.01806314       0.36673895     -10.56891197       8.43697307      -2.65468238      28.95598654     -37.93143207       9.05493090      -0.00447197       0.21472235      -0.60673735       0.14539669      -0.01806314       0.36673895      -0.00447197       0.21472235      -0.60673735       0.03462850      -0.03322577       0.05808667      -1.67684000      -0.39915000       0.00212000       0.35175000      -2.03527000       0.00348000       0.07717000      -0.17322000      -0.06936000
Se       4.90822936       1.86221037      11.88028483     -12.89566870      13.65171846     -26.23193112       3.10794523      -3.92892722       4.68326496      -0.21780762      -0.00888161      -0.12513006       3.10794523      -3.92892722       4.68326496      -0.86118860       7.27157308     -35.07591839       0.06250813      -0.34626930       0.17451613      -0.21780762      -0.00888161      -0.12513006       0.06250813      -0.34626930       0.17451613       0.00369593       0.01957486      -0.67207880       0.79421000       0.06439000       0.00511000       0.11173000       1.10875000       0.00353000      -0.16154000       0.09262000       0.05708000
Se       4.79140165       1.87070871       8.49579757       4.86516671       5.43566834      31.13175670       2.17365840      -0.03452292      -6.38485398       0.17590679       0.02423422      -0.13987038       2.17365840      -0.03452292      -6.38485398      12.49568628       2.81425456      25.10980782      -0.05459151       0.11389555       0.00735841       0.17590679       0.02423422      -0.13987038      -0.05459151       0.11389555       0.00735841      -0.03305988      -0.01392357       0.72308902       0.88223000      -0.02706000       0.01027000       0.08665000       0.91056000      -0.00172000      -0.00595000      -0.15504000       0.06075000
W        1.70035124       3.71348036      10.26364710     -38.62066951      -4.98940713       0.79106403      -0.88065871     -13.23372642       1.14620121       0.19322178       0.00652539      -0.77005710      -0.88065871     -13.23372642       1.14620121     -13.69136367      -8.47728152      -3.26477572       0.03883888       0.26269239       0.43870503       0.19322178       0.00652539      -0.77005710       0.03883888       0.26269239       0.43870503      -0.04756952       0.01697293       0.01299362      -1.31465000      -0.00614000      -0.02984000      -0.40923000      -1.66941000       0.00478000      -0.24864000       0.23201000       0.02458000
Se       3.42580675       4.65484216      11.93410763     -17.92553270       6.01177831     -32.87511144       8.86329249      -7.30887771       0.06868068      -0.32451695       0.10918217      -0.03578207       8.86329249      -7.30887771       0.06868068     -20.05140677       5.67178089     -28.32026868      -0.09324660      -0.22844166       0.03629349      -0.32451695       0.10918217      -0.03578207      -0.09324660      -0.22844166       0.03629349       0.01795701      -0.02938615      -0.75174158       0.91648000      -0.00846000       0.00107000      -0.03400000       0.89973000      -0.00629000      -0.29138000       0.10984000       0.05008000
Se       3.23298241       4.61547630       8.46180422       8.91294475      17.68999215      30.41404634      14.61353698       0.22021823       0.46110093       0.29186737      -0.09119887       0.00868079      14.61353698       0.22021823       0.46110093      -6.56783433      27.87647971      32.94201264       0.13502869       0.06544983       0.08203257       0.29186737      -0.09119887       0.00868079       0.13502869       0.06544983       0.08203257      -0.01930963      -0.03675005       0.81076197       0.75530000       0.09253000      -0.00013000       0.00937000       0.67716000       0.01174000      -0.04966000      -0.33596000       0.05352000
Mo      -0.02823011       6.50083731      10.25563717      27.57468185      37.14516407      -3.68290041      17.55890211      13.32047672      -0.64722590      -0.21081120      -0.08729582       0.35073404      17.55890211      13.32047672      -0.64722590      11.14558519     149.10837277       0.50560974      -0.01936579      -0.23088167       1.22297531      -0.21081120      -0.08729582       0.35073404      -0.01936579      -0.23088167       1.22297531       0.01634703       0.08086148       0.01744066      -1.94701000       0.44998000      -0.00381000       0.46590000      -1.42225000      -0.01219000      -0.07819000      -0.09468000      -0.06115000
Se       1.55900533       7.60669566      11.84814743       3.48984250      -6.47517684     -15.76983172      -4.11641038       2.51507107      -5.96222223      -0.08052643      -0.13817021      -0.12323901      -4.11641038       2.51507107      -5.96222223      -0.79592273     -34.34429190     -15.43254520      -0.11359804      -0.32609304      -0.21552983      -0.08052643      -0.13817021      -0.12323901      -0.11359804      -0.32609304      -0.21552983      -0.02438060       0.02886068      -0.61251624       1.13378000       0.07855000       0.00356000       0.03522000       1.10589000       0.00447000       0.27005000      -0.45956000       0.06490000
Se       1.48222724       7.58393575       8.58566505      15.16040271      -4.22656656      14.63719504      -0.13305103       2.24457848       6.79326183       0.09681685       0.15468298      -0.15248923      -0.13305103       2.24457848       6.79326183       9.59143959     -31.73126014       9.16369656       0.11207331       0.16538194      -0.39994826       0.09681685       0.15468298      -0.15248923       0.11207331       0.16538194      -0.39994826      -0.02195682      -0.01766994       0.63998253       1.24723000       0.02138000       0.01233000      -0.03538000       0.99967000       0.00570000      -0.18091000       0.33050000       0.06385000
Mo       6.44515855       0.97047105      10.17817531      11.29510697     -11.29881853       6.92583650       7.16976733       2.85786852       4.39813232       0.22239847       0.12931436       0.33840439       7.16976733       2.85786852       4.39813232     -14.91721895      -0.76482630      19.50525820       0.08781918       0.33397905       0.08221491       0.22239847       0.12931436       0.33840439       0.08781918       0.33397905       0.08221491       0.00049861      -0.01019728       0.01449226      -2.20667000      -0.05660000      -0.00214000       0.21343000      -2.25151000      -0.00093000      -0.11955000      -0.13974000      -0.07569000
Se       8.12040550       1.86465242      11.92844207      -8.97498191      11.75544548     -25.36537645       6.65629799       0.67159583      -4.57907300      -0.16532199      -0.18273244      -0.11515604       6.65629799       0.67159583      -4.57907300      -3.91668561       0.22666394     -32.92387737      -0.11926058      -0.25743155       0.21062994      -0.16532199      -0.18273244      -0.11515604      -0.11926058      -0.25743155       0.21062994      -0.02283595       0.02354031      -0.70284539       0.80919000       0.09733000       0.00333000       0.16203000       0.99209000      -0.00426000       0.07603000      -0.07684000       0.04864000
Se       8.05134430       1.88164910       8.52549291      11.74832543       5.80603621      21.17044460       7.19052137       4.09290930      -1.89714388       0.41468394       0.02122098       0.17650018       7.19052137       4.09290930      -1.89714388      10.83264948      -0.54649574      26.54791958      -0.03384192       0.36312005       0.26274111       0.41468394       0.02122098       0.17650018      -0.03384192       0.36312005       0.26274111       0.00715665      -0.00199806       0.76888299       0.90933000      -0.16408000       0.00184000      -0.08685000       0.80535000       0.00558000      -0.20609000       0.04269000       0.04407000
W        4.89611679       3.81096703      10.11907768      28.18619505     -17.36040594      22.79400000     -19.07385830      -0.22588893       1.12706099       0.22337552       0.13632388       0.19825593     -19.07385830      -0.22588893       1.12706099      40.69676099     -60.01368459      22.24350390      -0.01227763       0.35179585      -0.32321708       0.22337552       0.13632388       0.19825593      -0.01227763       0.35179585      -0.32321708       0.01568798      -0.02530500       0.06814999      -1.33145000       0.36342000       0.02292000      -0.35166000      -1.54923000       0.00878000       0.18785000       0.00737000       0.00892000
Se       6.57067997       4.61762530      11.92551161       5.34293032      16.13994741     -30.28713446      12.76114645       3.01087182      -3.73618116      -0.32755816      -0.17512381       0.05599619      12.76114645       3.01087182      -3.73618116     -11.09869230      20.42815696     -33.80831764      -0.30003147      -0.21678214       0.29221013      -0.32755816      -0.17512381       0.05599619      -0.30003147      -0.21678214       0.29221013      -0.00052911       0.00202270      -0.72174064       0.83945000       0.01162000      -0.00292000      -0.00552000       0.71690000       0.00646000       0.11245000       0.43042000       0.04697000
Se       6.61463689       4.80204899       8.50546809       1.31309700       5.62100025      22.15239138       6.77870207      -1.12048012       0.08941319       0.19996993       0.09050464       0.10852945       6.77870207      -1.12048012       0.08941319      -6.28226815      -3.13330293      29.99322677       0.14414526       0.22671652       0.13838643       0.19996993       0.09050464       0.10852945       0.14414526       0.22671652       0.13838643       0.02070184       0.03131654       0.74342231       0.73689000      -0.09591000       0.00034000      -0.11174000       0.87091000      -0.00833000       0.04329000      -0.09929000       0.05353000
Mo       3.18121093       6.51656412      10.22281600      33.68546922      12.44796839      -3.74508029      -0.57562747      23.02812022      -1.15741898      -0.15345290      -0.00689003       0.55026025      -0.57562747      23.02812022      -1.15741898      23.59362983      89.26241776       0.12615465       0.07617883      -0.01483579       0.44338056      -0.15345290      -0.00689003       0.55026025       0.07617883      -0.01483579       0.44338056       0.03322573       0.03138632      -0.00314658      -2.03795000      -0.12265000      -0.00189000      -0.06626000      -2.06435000       0.00218000      -0.14551000       0.04930000      -0.09490000
Se       4.92083035       7.54427684      11.91242222     -22.87838711      -5.17830409     -14.66971205      -0.64178556      -3.57023098      -1.94186807      -0.20592110       0.04481800      -0.21593526      -0.64178556      -3.57023098      -1.94186807     -10.57602985     -29.32363896      -7.36272545       0.00613574       0.04348524      -0.33914784      -0.20592110       0.04481800      -0.21593526       0.00613574       0.04348524      -0.33914784       0.00441759       0.00192325      -0.66374479       1.05465000       0.16789000       0.00894000       0.12776000       0.92073000       0.00485000      -0.15019000      -0.14118000       0.05904000
Se       4.91985353       7.50784144       8.62757064     -28.76247075       0.71962528      19.70050834       4.94233900      -5.12645477      -2.06814630       0.44403819      -0.13293159      -0.06056417       4.94233900      -5.12645477      -2.06814630      -7.13340859      -6.97876283      11.22675292      -0.14111411       0.20295143      -0.15688669       0.44403819      -0.13293159      -0.06056417      -0.14111411       0.20295143      -0.15688669       0.03766571      -0.00274250       0.62103062       1.12165000       0.00062000      -0.01187000      -0.01830000       0.98368000      -0.00134000       0.21607000      -0.12044000       0.06047000
